FN Thomson Reuters Web of Science™
VR 1.0
PT J
AU GRAY, HL
   WATKINS, TA
   ADAMS, JE
AF GRAY, HL
   WATKINS, TA
   ADAMS, JE
TI JACKKNIFE STATISTIC, ITS EXTENSIONS, AND ITS RELATION TO
   EN-TRANSFORMATIONS
SO ANNALS OF MATHEMATICAL STATISTICS
LA English
DT Article
CR ADAMS JE, 1971, ANN MATH STAT, V42, P1606, DOI 10.1214/aoms/1177693159
   ADAMS JE, 1971, THESIS TEXAS TECH U
   Aitken A. C., 1926, P R SOC EDINBURGH, V46, P289
   ARVESEN JN, 1969, ANN MATH STAT, V40, P2076, DOI 10.1214/aoms/1177697287
   ARVESEN JN, 1970, BIOMETRICS, V26, P677, DOI 10.2307/2528715
   BRILLINGER DR, 1966, COMMENTARY, V8, P74
   BRILLINGER DR, 1964, REV I INT STATIST, V32, P202, DOI 10.2307/1401865
   BURDICK DS, 1961, THESIS PRINCETON U
   CHAKRABARTY RP, 1968, J AM STAT ASSOC, V63, P748
   CHATTERJ.S, 1970, J AM STAT ASSOC, V65, P150, DOI 10.2307/2283581
   DEMING WE, 1963, METRIKA, V6, P37, DOI 10.1007/BF02613353
   DEMPSTER A, 1966, MULTIVARIATE ANALYSI, V1
   DURBIN J, 1959, BIOMETRIKA, V46, P477, DOI 10.2307/2333547
   FRYER JG, 1970, ANN MATH STAT, V41, P1392
   GAVER DP, 1970, TECHNOMETRICS, V12, P835, DOI 10.2307/1267329
   GRAY HL, 1969, MATH COMPUT, V23, P849, DOI 10.2307/2004973
   GRAY HL, 1971, SIAM J NUMERICAL ANA, V8
   GRAY HL, 1970, TEXAS TECH U MATH SE, V6, P237
   GRAY HL, J RES NAT BUR STAN B, V73, P251
   JONES HL, 1963, P IBM SCI COMPUTING, P185
   LUBKIN S, 1952, J RES NAT BUR STAND, V48, P228, DOI 10.6028/jres.048.032
   MANTEL N, 1967, BIOMETRICS, V23, P567, DOI 10.2307/2528016
   MILLER RG, 1964, ANN MATH STAT, V35, P1594, DOI 10.1214/aoms/1177700384
   MILLER RG, 1968, ANN MATH STAT, V39, P567, DOI 10.1214/aoms/1177698418
   MOSTELLER F, 1968, HDB SOCIAL PSYCHOLOG
   QUENOUILLE MH, 1949, J ROY STAT SOC B, V11, P68
   QUENOUILLE MH, 1956, BIOMETRIKA, V43, P353
   RAO JNK, 1966, BIOMETRIKA, V53, P571, DOI 10.2307/2333661
   RAO JNK, 1965, BIOMETRIKA, V52, P647, DOI 10.2307/2333720
   Rao J. N. K., 1969, NEW DEV SURVEY SAMPL, P213
   RAO PSR, 1970, ANN MATH STAT, V41, P1141
   RAO PSR, 1966, J AM STATIST ASSOC, V64, P574
   ROBSON DS, 1964, BIOMETRIKA, V51, P33, DOI 10.2307/2334193
   SALSBURG D, TO BE PUBLISHED
   SCHUCANY WR, 1971, J AM STATIST ASSOC
   Shanks D., 1955, J MATH PHYS, V34, P1, DOI DOI 10.1080/00207167308803075
   SHORACK GR, 1969, J AM STAT ASSOC, V64, P999, DOI 10.2307/2283481
   TUKEY JW, 1958, ANN MATH STAT, V29, P614
   WATKINS TA, 1971, THESIS TEXAS TECH U
   Wynn P., 1956, MTAC, V10, P91, DOI 10.2307/2002183
NR 40
TC 18
Z9 18
U1 0
U2 3
PU INST MATHEMATICAL STATISTICS
PI HAYWARD
PA IMS BUSINESS OFFICE-SUITE 7, 3401 INVESTMENT BLVD, HAYWARD, CA 94545
SN 0003-4851
J9 ANN MATH STAT
PY 1972
VL 43
IS 1
BP 1
EP &
DI 10.1214/aoms/1177692697
PG 0
WC Mathematics; Statistics & Probability
SC Mathematics
GA L7489
UT WOS:A1972L748900001
ER

PT J
AU MILLER, RG
   SEN, PK
AF MILLER, RG
   SEN, PK
TI WEAK CONVERGENCE OF U-STATISTICS AND VON MISES DIFFERENTIABLE
   STATISTICAL FUNCTIONS
SO ANNALS OF MATHEMATICAL STATISTICS
LA English
DT Article
CR BERK RH, 1966, ANN MATH STAT, V37, P51, DOI 10.1214/aoms/1177699597
   Billingsley P., 1968, CONVERGENCE PROBABIL
   Chow YS, 1960, P AM MATH SOC, V11, P107, DOI 10.2307/2032726
   Cramer H., 1946, MATHEMATICAL METHODS
   DONSKER MD, 1952, ANN MATH STAT, V23, P277, DOI 10.1214/aoms/1177729445
   Donsker M. D., 1951, MEM AM MATH SOC, V6, P1
   HOEFFDING W, 1948, ANN MATH STAT, V19, P293, DOI 10.1214/aoms/1177730196
   LEHMANN EL, 1951, ANN MATH STAT, V22, P165, DOI 10.1214/aoms/1177729639
   LOYNES RM, 1970, P AM MATH SOC, V25, P56, DOI 10.2307/2036526
   MILLER RG, 1970, 6 P BERK S MATH STAT
   Mises R. v., 1947, ANN MATH STAT, V18, P309
   Sproule R. N., 1969, THESIS U N CAROLINA
NR 12
TC 42
Z9 42
U1 0
U2 1
PU INST MATHEMATICAL STATISTICS
PI HAYWARD
PA IMS BUSINESS OFFICE-SUITE 7, 3401 INVESTMENT BLVD, HAYWARD, CA 94545
SN 0003-4851
J9 ANN MATH STAT
PY 1972
VL 43
IS 1
BP 31
EP &
DI 10.1214/aoms/1177692698
PG 0
WC Mathematics; Statistics & Probability
SC Mathematics
GA L7489
UT WOS:A1972L748900002
ER

PT J
AU KRAFT, CH
   VANEEDEN, C
AF KRAFT, CH
   VANEEDEN, C
TI LINEARIZED RANK ESTIMATES AND SIGNED-RANK ESTIMATES FOR GENERAL LINEAR
   HYPOTHESIS
SO ANNALS OF MATHEMATICAL STATISTICS
LA English
DT Article
CR ADICHIE JN, 1967, ANN MATH STAT, V38, P894, DOI 10.1214/aoms/1177698883
   BHUCHONGKUL S, 1965, ANN MATH STAT, V36, P198, DOI 10.1214/aoms/1177700282
   GREENBER.VL, 1966, ANN MATH STAT, V37, P1331, DOI 10.1214/aoms/1177699277
   Hajek J, 1967, THEORY RANK TESTS
   HODGES JL, 1963, ANN MATH STAT, V34, P598, DOI 10.1214/aoms/1177704172
   JURECKOV.J, 1969, ANN MATH STAT, V40, P1889, DOI 10.1214/aoms/1177697273
   JURECKOVA J, 1971, ANN MATH STAT, V42, P1328, DOI 10.1214/aoms/1177693245
   KOUL HL, 1971, ANN MATH STAT, V42, P466, DOI 10.1214/aoms/1177693398
   KOUL HL, 1969, ANN MATH STAT, V40, P1950, DOI 10.1214/aoms/1177697278
   KRAFT C, 1970, NONPARAMETRIC TECHNI, P267
   KRAFT CH, TO BE PUBLISHED
   LEHMANN EL, 1964, ANN MATH STAT, V35, P726, DOI 10.1214/aoms/1177703570
   LEHMANN EL, 1963, ANN MATH STAT, V34, P957, DOI 10.1214/aoms/1177704018
   PURI ML, 1967, ANN MATH ST, V38, P1587, DOI 10.1214/aoms/1177698715
   RAO PV, 1969, ANN MATH STAT, V40, P1784, DOI 10.1214/aoms/1177697391
   VANEEDEN C, TO BE PUBLISHED
NR 16
TC 28
Z9 28
U1 1
U2 1
PU INST MATHEMATICAL STATISTICS
PI HAYWARD
PA IMS BUSINESS OFFICE-SUITE 7, 3401 INVESTMENT BLVD, HAYWARD, CA 94545
SN 0003-4851
J9 ANN MATH STAT
PY 1972
VL 43
IS 1
BP 42
EP &
DI 10.1214/aoms/1177692699
PG 0
WC Mathematics; Statistics & Probability
SC Mathematics
GA L7489
UT WOS:A1972L748900003
ER

PT J
AU NOE, M
AF NOE, M
TI CALCULATION OF DISTRIBUTIONS OF 2-SIDED KOLMOGOROV-SMIRNOV TYPE
   STATISTICS
SO ANNALS OF MATHEMATICAL STATISTICS
LA English
DT Article
CR ANDERSON TW, 1952, ANN MATH STAT, V23, P193, DOI 10.1214/aoms/1177729437
   BOROKOV AA, 1968, THEOR PROBAB APPL+, V13, P359, DOI 10.1137/1113048
   DANIELS HE, 1945, PROC R SOC LON SER-A, V183, P405, DOI 10.1098/rspa.1945.0011
   NOE M, 1968, ANN MATH STAT, V39, P233, DOI 10.1214/aoms/1177698523
   STECK GP, 1971, ANN MATH STAT, V42, P1, DOI 10.1214/aoms/1177693490
   VANDEWIELE G, 1966, STATISTICA NEERLANDI, V20, P87, DOI 10.1111/j.1467-9574.1966.tb00494.x
   Wald A, 1939, ANN MATH STAT, V10, P105, DOI 10.1214/aoms/1177732209
NR 7
TC 48
Z9 50
U1 0
U2 0
PU INST MATHEMATICAL STATISTICS
PI HAYWARD
PA IMS BUSINESS OFFICE-SUITE 7, 3401 INVESTMENT BLVD, HAYWARD, CA 94545
SN 0003-4851
J9 ANN MATH STAT
PY 1972
VL 43
IS 1
BP 58
EP &
DI 10.1214/aoms/1177692700
PG 0
WC Mathematics; Statistics & Probability
SC Mathematics
GA L7489
UT WOS:A1972L748900004
ER

PT J
AU WOINSKY, MN
AF WOINSKY, MN
TI COMPOSITE NONPARAMETRIC TEST FOR A SCALE SLIPPAGE ALTERNATIVE
SO ANNALS OF MATHEMATICAL STATISTICS
LA English
DT Article
CR ANSARI AR, 1960, ANN MATH STAT, V31, P1174, DOI 10.1214/aoms/1177705688
   BASU AP, 1967, ANN MATH STAT, V38, P274, DOI 10.1214/aoms/1177699082
   BASU AP, 1967, ANN MATH STAT, V38, P905, DOI 10.1214/aoms/1177698884
   CAPON J, 1961, ANN MATH STAT, V32, P88, DOI 10.1214/aoms/1177705142
   CHERNOFF H, 1958, ANN MATH STAT, V29, P972, DOI 10.1214/aoms/1177706436
   CHOI SC, 1969, TECHNOMETRICS, V11, P683, DOI 10.2307/1266892
   DOKSUM K, 1969, ANN MATH STAT, V40, P1167, DOI 10.1214/aoms/1177697493
   Fisz M, 1963, PROBABILITY THEORY M
   KLOTZ J, 1962, ANN MATH STAT, V33, P498, DOI 10.1214/aoms/1177704576
   LEHMANN EL, 1964, TESTING STATISTICAL
   MANN HB, 1947, ANN MATH STAT, V18, P50, DOI 10.1214/aoms/1177730491
   NOETHER GE, 1955, ANN MATH STAT, V26, P64, DOI 10.1214/aoms/1177728593
   PURI PS, 1968, SANKHYA            A, V30, P291
   SAVAGE IR, 1956, ANN MATH STAT, V27, P590, DOI 10.1214/aoms/1177728170
   SIEGEL S, 1960, J AM STAT ASSOC, V55, P429, DOI 10.2307/2281906
   SUKHATME BV, 1958, BIOMETRIKA, V45, P544, DOI 10.2307/2333199
   SUKHATME BV, 1957, ANN MATH STAT, V28, P188, DOI 10.1214/aoms/1177707046
   WILKS SS, 1962, MATHEMATICL STATISTI
   WOINSKY MN, 1972, IEEE T INFORMATION T, V18, P120
NR 19
TC 6
Z9 6
U1 1
U2 1
PU INST MATHEMATICAL STATISTICS
PI HAYWARD
PA IMS BUSINESS OFFICE-SUITE 7, 3401 INVESTMENT BLVD, HAYWARD, CA 94545
SN 0003-4851
J9 ANN MATH STAT
PY 1972
VL 43
IS 1
BP 65
EP &
DI 10.1214/aoms/1177692701
PG 0
WC Mathematics; Statistics & Probability
SC Mathematics
GA L7489
UT WOS:A1972L748900005
ER

PT J
AU LANDERS, D
AF LANDERS, D
TI EXISTENCE AND CONSISTENCY OF MODIFIED MINIMUM CONTRAST ESTIMATES
SO ANNALS OF MATHEMATICAL STATISTICS
LA English
DT Article
CR Doob J. L., 1953, STOCHASTIC PROCESSES
   Dunford N., 1964, LINEAR OPERATORS 1
   Huber PJ, 1967, 5TH P BERK S MATH ST, P221
   LANDERS D, 1968, THESIS U COLOGNE
   LUPSEN H, 1970, THESIS U COLOGNE
   PFANZAGL J, 1969, METRIKA, V14, P249, DOI 10.1007/BF02613654
   SION M, 1969, T AM MATH SOC, V96, P237
NR 7
TC 1
Z9 1
U1 0
U2 1
PU INST MATHEMATICAL STATISTICS
PI HAYWARD
PA IMS BUSINESS OFFICE-SUITE 7, 3401 INVESTMENT BLVD, HAYWARD, CA 94545
SN 0003-4851
J9 ANN MATH STAT
PY 1972
VL 43
IS 1
BP 74
EP &
DI 10.1214/aoms/1177692702
PG 0
WC Mathematics; Statistics & Probability
SC Mathematics
GA L7489
UT WOS:A1972L748900006
ER

PT J
AU SCHUSTER, EF
AF SCHUSTER, EF
TI JOINT ASYMPTOTIC DISTRIBUTION OF ESTIMATED REGRESSION FUNCTION AT A
   FINITE NUMBER OF DISTINCT POINTS
SO ANNALS OF MATHEMATICAL STATISTICS
LA English
DT Article
CR Loeve M., 1963, PROBABILITY THEORY
   Nadaraya E. A., 1964, THEOR PROBAB APPL, V9, P141, DOI DOI 10.1137/1109020
   Rao C.R, 1965, LINEAR STATISTICAL I
   Watson G. S., 1964, SANKHYA A, VA26, P359, DOI DOI 10.2307/25049340
NR 4
TC 76
Z9 77
U1 0
U2 1
PU INST MATHEMATICAL STATISTICS
PI HAYWARD
PA IMS BUSINESS OFFICE-SUITE 7, 3401 INVESTMENT BLVD, HAYWARD, CA 94545
SN 0003-4851
J9 ANN MATH STAT
PY 1972
VL 43
IS 1
BP 84
EP &
DI 10.1214/aoms/1177692703
PG 0
WC Mathematics; Statistics & Probability
SC Mathematics
GA L7489
UT WOS:A1972L748900007
ER

PT J
AU READ, RR
AF READ, RR
TI ASYMPTOTIC INADMISSIBILITY OF SAMPLE DISTRIBUTION FUNCTION
SO ANNALS OF MATHEMATICAL STATISTICS
LA English
DT Article
CR AGGARWAL OP, 1955, ANN MATH STAT, V26, P450, DOI 10.1214/aoms/1177728490
   BRUNK HD, 1962, ANN MATH STAT, V33, P525, DOI 10.1214/aoms/1177704578
   DURBIN J, 1968, ANN MATH STAT, V39, P398, DOI 10.1214/aoms/1177698404
   Ferguson T., 1967, MATHEMATICAL STATIST
   HENDREN JP, 1969, THESIS NAVAL POSTGRA
   HENDREN JP, AD704780
   PYKE R, 1959, ANN MATH STAT, V30, P568, DOI 10.1214/aoms/1177706269
   STECK GP, 1971, ANN MATH STAT, V42, P1, DOI 10.1214/aoms/1177693490
NR 8
TC 17
Z9 17
U1 0
U2 0
PU INST MATHEMATICAL STATISTICS
PI HAYWARD
PA IMS BUSINESS OFFICE-SUITE 7, 3401 INVESTMENT BLVD, HAYWARD, CA 94545
SN 0003-4851
J9 ANN MATH STAT
PY 1972
VL 43
IS 1
BP 89
EP &
DI 10.1214/aoms/1177692704
PG 0
WC Mathematics; Statistics & Probability
SC Mathematics
GA L7489
UT WOS:A1972L748900008
ER

PT J
AU MEEDEN, G
AF MEEDEN, G
TI SOME ADMISSIBLE EMPIRICAL BAYES PROCEDURES
SO ANNALS OF MATHEMATICAL STATISTICS
LA English
DT Article
CR JOHNS MV, 1956, THESIS COLUMBIA U
   KARLIN S, 1956, ANN MATH STAT, V27, P272, DOI 10.1214/aoms/1177728259
   LEHMANN EL, 1959, TESTING STATISTICAL
   ROBBINS H, 1964, ANN MATH STAT, V35, P1, DOI 10.1214/aoms/1177703729
   ROBBINS HE, 1955, 3 P BERK S MATH STAT, V1, P157
   ROLPH JE, 1968, ANN MATH STAT, V39, P1289, DOI 10.1214/aoms/1177698254
   SAMUEL E, 1963, ANN MATH STAT, V34, P1370, DOI 10.1214/aoms/1177703870
NR 7
TC 20
Z9 21
U1 0
U2 1
PU INST MATHEMATICAL STATISTICS
PI HAYWARD
PA IMS BUSINESS OFFICE-SUITE 7, 3401 INVESTMENT BLVD, HAYWARD, CA 94545
SN 0003-4851
J9 ANN MATH STAT
PY 1972
VL 43
IS 1
BP 96
EP &
DI 10.1214/aoms/1177692705
PG 0
WC Mathematics; Statistics & Probability
SC Mathematics
GA L7489
UT WOS:A1972L748900009
ER

PT J
AU HANNAN, J
   HUANG, JS
AF HANNAN, J
   HUANG, JS
TI EQUIVARIANT PROCEDURES IN COMPOUND DECISION PROBLEM WITH FINITE STATE
   COMPONENT PROBLEM
SO ANNALS OF MATHEMATICAL STATISTICS
LA English
DT Article
CR COGBURN R, 1967, ANN MATH STAT, V38, P447, DOI 10.1214/aoms/1177698960
   COGBURN R, 1965, ANNIVERSARY VOLUME, P24
   Ferguson T., 1967, MATHEMATICAL STATIST
   GILLILAN.DC, 1969, ANN MATH STAT, V40, P1536, DOI 10.1214/aoms/1177697371
   HALMOS P. R., 1950, MEASURE THEORY
   HANNAN J, 1972, ANN MATH STAT, V43, P308, DOI 10.1214/aoms/1177692724
   HANNAN JF, 1965, ANN MATH STAT, V36, P1743, DOI 10.1214/aoms/1177699802
   HANNAN JF, 1955, ANN MATH STAT, V26, P37, DOI 10.1214/aoms/1177728591
   HANNAN JF, 1953, UNC68 I STAT MIM SER
   HORN SD, 1968, 10 STANF U DEP STAT
   JAMES W, 1961, 4TH P BERK S MATH ST, V1, P361
   JOHNS MV, 1967, 5 P BERK S MATH STAT, V1, P463
   OATEN A, 1969, RM233 MICH STAT U DE
   ROBBINS H, 1951, 2ND P BERK S MATH ST, P131
   ROBBINS H, 1962, RECENT DEVELOPMENTS, P56
   SAMUEL E, 1967, SANKHYA SER A, V29, P123
   Stein C., 1966, FESTSCHRIFT J NEYMAN, P351
   STEIN C, 1956, 3RD P BERK S MATH ST, P197
   SUZUKI G, 1966, ANN I STAT MATH, V18, P127, DOI 10.1007/BF02869524
   SUZUKI G, 1966, RM1 I STAT MATH
   SWAIN DD, 1965, 81 STANF U DEP STAT
   VANRYZIN JR, 1966, ANN MATH STAT, V37, P412
   WIJSMAN RA, 1968, ANN MATHEMATICAL STA, V39, P2163, DOI 10.1214/aoms/1177698055
NR 23
TC 6
Z9 6
U1 0
U2 0
PU INST MATHEMATICAL STATISTICS
PI HAYWARD
PA IMS BUSINESS OFFICE-SUITE 7, 3401 INVESTMENT BLVD, HAYWARD, CA 94545
SN 0003-4851
J9 ANN MATH STAT
PY 1972
VL 43
IS 1
BP 102
EP &
DI 10.1214/aoms/1177692706
PG 0
WC Mathematics; Statistics & Probability
SC Mathematics
GA L7489
UT WOS:A1972L748900010
ER

PT J
AU WOODROOF.M
AF WOODROOF.M
TI MAXIMUM LIKELIHOOD ESTIMATION OF A TRANSLATION PARAMETER OF A TRUNCATED
   DISTRIBUTION
SO ANNALS OF MATHEMATICAL STATISTICS
LA English
DT Article
CR Cramer H., 1946, MATHEMATICAL METHODS
   DAWID AP, 1970, PROC CAMB PHILOS S-M, V67, P625
   FELLER W., 1966, INTRO PROBABILITY TH, VII
   FISHER R, 1922, PHILOS T ROY SOC L A, V222
   HAJEK J, 1962, ANN MATH STAT, V33, P1124, DOI 10.1214/aoms/1177704476
   HILL BM, 1963, J AM STAT ASSOC, V58, P72, DOI 10.2307/2282955
   LECAM L, 1970, ANN MATH STAT, V41, P802, DOI 10.1214/aoms/1177696960
   POLFELDT T, 1970, ANN MATH STAT, V41, P667, DOI 10.1214/aoms/1177697111
   POLFELDT T, 1970, SKAND AKTUARIETID S1
   Rao C.R, 1965, LINEAR STATISTICAL I
   WALD A, 1949, ANN MATH STAT, V20, P595, DOI 10.1214/aoms/1177729952
NR 11
TC 26
Z9 26
U1 0
U2 1
PU INST MATHEMATICAL STATISTICS
PI HAYWARD
PA IMS BUSINESS OFFICE-SUITE 7, 3401 INVESTMENT BLVD, HAYWARD, CA 94545
SN 0003-4851
J9 ANN MATH STAT
PY 1972
VL 43
IS 1
BP 113
EP &
DI 10.1214/aoms/1177692707
PG 0
WC Mathematics; Statistics & Probability
SC Mathematics
GA L7489
UT WOS:A1972L748900011
ER

PT J
AU LAYARD, MWJ
AF LAYARD, MWJ
TI LARGE SAMPLE TESTS FOR EQUALITY OF 2 COVARIANCE MATRICES
SO ANNALS OF MATHEMATICAL STATISTICS
LA English
DT Article
CR Anderson T. W., 1958, INTRO MULTIVARIATE S
   ARVESEN JN, 1969, ANN MATH STAT, V40, P2076, DOI 10.1214/aoms/1177697287
   BAHADUR RR, 1960, ANN MATH STAT, V31, P276, DOI 10.1214/aoms/1177705894
   BOX GEP, 1953, BIOMETRIKA, V40, P318, DOI 10.2307/2333350
   Cramer H., 1946, MATHEMATICAL METHODS
   GAYEN AK, 1951, BIOMETRIKA, V38, P219, DOI 10.2307/2332329
   GLESER LJ, 1966, SANKHYA SER A, V28, P157
   GLESER LJ, 1964, ANN MATH STAT, V35, P1537, DOI 10.1214/aoms/1177700377
   HANNAN EJ, 1956, J ROY STAT SOC B, V18, P227
   HOTELLING H, 1950, 2 P BERK S MATH STAT, V1, P23
   MILLER RG, 1964, ANN MATH STAT, V35, P1594, DOI 10.1214/aoms/1177700384
   MILLER RG, 1968, ANN MATH STAT, V39, P567, DOI 10.1214/aoms/1177698418
   PITMAN EJG, UNPUBLISHED
   PRATT JW, 1959, ANN MATH STAT, V30, P549, DOI 10.1214/aoms/1177706267
   QUENOUILLE MH, 1956, BIOMETRIKA, V43, P353
   ROY SN, 1960, ANN MATH ST, V30, P1277
   TUKEY JW, UNPUBLISHED MANUSCRI
   Wilks S. S., 1962, MATHEMATICAL STATIST
NR 18
TC 19
Z9 19
U1 0
U2 0
PU INST MATHEMATICAL STATISTICS
PI HAYWARD
PA IMS BUSINESS OFFICE-SUITE 7, 3401 INVESTMENT BLVD, HAYWARD, CA 94545
SN 0003-4851
J9 ANN MATH STAT
PY 1972
VL 43
IS 1
BP 123
EP &
DI 10.1214/aoms/1177692708
PG 0
WC Mathematics; Statistics & Probability
SC Mathematics
GA L7489
UT WOS:A1972L748900012
ER

PT J
AU SANATHANAN, L
AF SANATHANAN, L
TI ESTIMATING SIZE OF A MULTINOMIAL POPULATION
SO ANNALS OF MATHEMATICAL STATISTICS
LA English
DT Article
CR BARTLETT MS, 1956, J ROY STAT SOC B, V18, P295
   Chapman D. G., 1951, U CALIFORNIA PUBL ST, V1, P131
   COX DR, 1958, ANN MATH STAT, V29, P357, DOI 10.1214/aoms/1177706618
   COX DR, 1958, J ROY STAT SOC B, V20, P215
   Fisher R., 1956, STATISTICAL METHODS
   Rao C.R, 1965, LINEAR STATISTICAL I
   SANATHANAN LP, 1969, THESIS U CHICAGO
   WELCH BL, 1956, J R STAT SOC B, V34, P28
NR 8
TC 101
Z9 101
U1 0
U2 3
PU INST MATHEMATICAL STATISTICS
PI CLEVELAND
PA 3163 SOMERSET DR, CLEVELAND, OH 44122 USA
SN 0003-4851
J9 ANN MATH STAT
JI Ann. Math. Stat.
PY 1972
VL 43
IS 1
BP 142
EP +
DI 10.1214/aoms/1177692709
PG 1
WC Mathematics; Statistics & Probability
SC Mathematics
GA L7489
UT WOS:A1972L748900013
ER

PT J
AU HINICH, MJ
   SHAMAN, P
AF HINICH, MJ
   SHAMAN, P
TI PARAMETER ESTIMATION FOR AN R-DIMENSIONAL PLANE-WAVE OBSERVED WITH
   ADDITIVE INDEPENDENT GAUSSIAN ERRORS
SO ANNALS OF MATHEMATICAL STATISTICS
LA English
DT Article
CR Barber N.F., 1959, Electronic and Radio Engineer, V36
   CAPON J, 1967, PR INST ELECTR ELECT, V55, P192, DOI 10.1109/PROC.1967.5439
   CLAY CS, 1966, REV GEOPHYS, V4, P475, DOI 10.1029/RG004i004p00475
   CLAY CS, 1970, J ACOUST SOC AM, V47, P435, DOI 10.1121/1.1911545
   COURANT R, 1962, METHODS MATHEMATICAL, V2
   Embree P., 1963, GEOPHYSICS, V28, P948, DOI DOI 10.1190/1.1439310
   GREEN PE, 1966, GEOPHYS J ROY ASTR S, V11, P67, DOI 10.1111/j.1365-246X.1966.tb03493.x
   HINICH M, 1965, ANN MATH STAT, V36, P489, DOI 10.1214/aoms/1177700159
   HORTON CW, 1969, SIGNAL PROCESSING UN
   LASTER SJ, 1966, J GEOPHYS RES, V71, P1669
   LEVIN MJ, 1965, J I ELECTRON RAD ENG, V29, P213
   LOEVE M, 1963, PROBABILITY THEORY
   MACDONAL.VH, 1969, J ACOUST SOC AM, V46, P37, DOI 10.1121/1.1911659
   PRIESTLEY MB, 1964, BIOMETRIKA, V51, P195, DOI 10.2307/2334207
   RAO MM, 1960, TRABAJOS ESTADISTICA, V11, P123, DOI 10.1007/BF03006560
   ROBINSON JC, 1969, GEOPHYSICS, V34, P330, DOI 10.1190/1.1440015
   Smith M. K, 1956, GEOPHYSICS, V21, P337, DOI 10.1190/1.1438235
   WALKER AM, 1971, BIOMETRIKA, V58, P21, DOI 10.2307/2334314
   Walker A.M., 1965, J AUSTR MATH SOC, V5, P107
   Whittle P., 1952, TRABAJOS ESTADISTICA, V3, P43, DOI DOI 10.1007/BF03002861
NR 20
TC 23
Z9 23
U1 0
U2 0
PU INST MATHEMATICAL STATISTICS
PI CLEVELAND
PA 3163 SOMERSET DR, CLEVELAND, OH 44122 USA
SN 0003-4851
J9 ANN MATH STAT
JI Ann. Math. Stat.
PY 1972
VL 43
IS 1
BP 153
EP +
DI 10.1214/aoms/1177692710
PG 1
WC Mathematics; Statistics & Probability
SC Mathematics
GA L7489
UT WOS:A1972L748900014
ER

PT J
AU FARRELL, RH
AF FARRELL, RH
TI BEST OBTAINABLE ASYMPTOTIC RATES OF CONVERGENCE IN ESTIMATION OF A
   DENSITY-FUNCTION AT A POINT
SO ANNALS OF MATHEMATICAL STATISTICS
LA English
DT Article
CR EPSNECNIKOV VA, 1969, TEOR VEROJATNOST PRI, V1, P156
   FARRELL RH, 1967, ANN MATH STAT, V38, P471, DOI 10.1214/aoms/1177698962
   LEADBETTER MR, 1963, 11 RES TRIANGL I TEC
   PARZEN E, 1962, ANN MATH STAT, V33, P1065, DOI 10.1214/aoms/1177704472
   PICKANDS J, 1969, ANN MATH STAT, V40, P854
   ROSENBLATT M, 1956, ANN MATH STAT, V27, P832, DOI 10.1214/aoms/1177728190
   ROSENBLATT M, 1971, ANN MATH ST, V42
   SCHUSTER EF, 1969, ANN MATH STAT, V40, P1187, DOI 10.1214/aoms/1177697495
   SCHWARTZ SC, 1967, ANN MATH STAT, V38, P1261, DOI 10.1214/aoms/1177698795
   WATSON GS, 1969, ANN MATH STAT, V40, P1496, DOI 10.1214/aoms/1177697523
   WATSON GS, 1963, ANN MATH STAT, V34, P480, DOI 10.1214/aoms/1177704159
   WEISS L, 1967, Z WAHRSCHEINLICHKEIT, V7, P327, DOI 10.1007/BF00535018
   Wiener N., 1933, FOURIER INTEGRAL CER
NR 13
TC 97
Z9 97
U1 0
U2 0
PU INST MATHEMATICAL STATISTICS
PI HAYWARD
PA IMS BUSINESS OFFICE-SUITE 7, 3401 INVESTMENT BLVD, HAYWARD, CA 94545
SN 0003-4851
J9 ANN MATH STAT
PY 1972
VL 43
IS 1
BP 170
EP &
DI 10.1214/aoms/1177692711
PG 0
WC Mathematics; Statistics & Probability
SC Mathematics
GA L7489
UT WOS:A1972L748900015
ER

PT J
AU KILLEEN, TJ
   SIEVERS, GL
   HETTMANS.TP
AF KILLEEN, TJ
   SIEVERS, GL
   HETTMANS.TP
TI ELEMENTARY THEOREM ON PROBABILITY OF LARGE DEVIATIONS
SO ANNALS OF MATHEMATICAL STATISTICS
LA English
DT Article
CR BAHADUR RR, 1967, ANN MATH STAT, V38, P303, DOI 10.1214/aoms/1177698949
   CHERNOFF H, 1952, ANN MATH STAT, V23, P493, DOI 10.1214/aoms/1177729330
   FELLER W., 1957, INTRO PROBABILITY TH, VI
   GASTWIRTH JL, 1968, J AM STAT ASSOC, V63, P692, DOI 10.2307/2284039
   Hajek J, 1967, THEORY RANK TESTS
   HODGES JL, 1956, ANN MATH STAT, V27, P324, DOI 10.1214/aoms/1177728261
   KLOTZ J, 1967, J AM STAT ASSOC, V62, P932, DOI 10.2307/2283681
   KLOTZ J, 1965, ANN MATH STAT, V36, P1759, DOI 10.1214/aoms/1177699804
   Mathisen HC, 1943, ANN MATH STAT, V14, P188, DOI 10.1214/aoms/1177731460
   MOOD AM, 1954, ANN MATH STAT, V25, P514, DOI 10.1214/aoms/1177728719
   NOETHER GE, 1955, ANN MATH STAT, V26, P64, DOI 10.1214/aoms/1177728593
   SIEVERS GL, 1969, ANN MATH STAT, V40, P1908, DOI 10.1214/aoms/1177697275
   WOODWORT.GG, 1970, ANN MATH STAT, V41, P251, DOI 10.1214/aoms/1177697206
NR 13
TC 12
Z9 12
U1 0
U2 1
PU INST MATHEMATICAL STATISTICS
PI HAYWARD
PA IMS BUSINESS OFFICE-SUITE 7, 3401 INVESTMENT BLVD, HAYWARD, CA 94545
SN 0003-4851
J9 ANN MATH STAT
PY 1972
VL 43
IS 1
BP 181
EP &
DI 10.1214/aoms/1177692712
PG 0
WC Mathematics; Statistics & Probability
SC Mathematics
GA L7489
UT WOS:A1972L748900016
ER

PT J
AU BERK, RH
AF BERK, RH
TI CONSISTENCY AND ASYMPTOTIC NORMALITY OF MLES FOR EXPONENTIAL MODELS
SO ANNALS OF MATHEMATICAL STATISTICS
LA English
DT Article
CR BERK RH, 1970, ANN MATH STAT, V41, P894, DOI 10.1214/aoms/1177696967
   BUCK RC, 1956, ADVANCED CALCULUS
   Cramer H., 1946, MATHEMATICAL METHODS
   Eggleston H. G., 1958, CONVEXITY
   LEHMANN EL, 1959, TESTING STATISTICAL
   Rao C.R, 1965, LINEAR STATISTICAL I
   Rao C. R., 1957, SANKHYA, V18, P139
NR 7
TC 59
Z9 59
U1 0
U2 0
PU INST MATHEMATICAL STATISTICS
PI HAYWARD
PA IMS BUSINESS OFFICE-SUITE 7, 3401 INVESTMENT BLVD, HAYWARD, CA 94545
SN 0003-4851
J9 ANN MATH STAT
PY 1972
VL 43
IS 1
BP 193
EP &
DI 10.1214/aoms/1177692713
PG 0
WC Mathematics; Statistics & Probability
SC Mathematics
GA L7489
UT WOS:A1972L748900017
ER

PT J
AU GORDON, FS
   MATHAI, AM
AF GORDON, FS
   MATHAI, AM
TI CHARACTERIZATIONS OF MULTIVARIATE NORMAL DISTRIBUTION USING REGRESSION
   PROPERTIES
SO ANNALS OF MATHEMATICAL STATISTICS
LA English
DT Article
CR GORDON FB, TO BE PUBLISHED
   GORDON FS, 1968, THESIS MCGILL U
   LAHA RG, 1960, BIOMETRIKA, V47, P335, DOI 10.2307/2333304
   Lukacs E., 1960, CHARACTERISTICS FUNC
   Lukacs E., 1964, APPLICATIONS CHARACT
   RUDIN W, 1953, PRINCIPLES MATHEMATI
   WEDDERBURN JHM, 1934, 17 AM MATH SOC COLL
NR 7
TC 2
Z9 2
U1 0
U2 0
PU INST MATHEMATICAL STATISTICS
PI HAYWARD
PA IMS BUSINESS OFFICE-SUITE 7, 3401 INVESTMENT BLVD, HAYWARD, CA 94545
SN 0003-4851
J9 ANN MATH STAT
PY 1972
VL 43
IS 1
BP 205
EP &
DI 10.1214/aoms/1177692714
PG 0
WC Mathematics; Statistics & Probability
SC Mathematics
GA L7489
UT WOS:A1972L748900018
ER

PT J
AU TOMKINS, RJ
AF TOMKINS, RJ
TI SOME PROBABILITY INEQUALITIES RELATED TO LAW OF LARGE NUMBERS
SO ANNALS OF MATHEMATICAL STATISTICS
LA English
DT Article
CR BURKHOLD.DL, 1966, ANN MATH STAT, V37, P1494, DOI 10.1214/aoms/1177699141
   Chow YS, 1960, P AM MATH SOC, V11, P107, DOI 10.2307/2032726
   CSORGO M, 1968, T AM MATH SOC, V131, P259, DOI 10.2307/1994694
   Doob J. L., 1953, STOCHASTIC PROCESSES
   Hajek J., 1955, ACTA MATH ACAD SCI H, V6, P281, DOI 10.1007/BF02024392
   HEYDE CC, 1968, J APPL PROBAB, V5, P481, DOI 10.2307/3212269
   KOUNIAS EG, 1969, ANN MATH STAT, V40, P1091, DOI 10.1214/aoms/1177697615
   Loeve M., 1963, PROBABILITY THEORY
   TOMKINS RJ, 1971, J APPL PROBAB, V8, P428, DOI 10.2307/3211915
   WHITTLE P, 1969, THEOR PROBAB APPL+, V14, P310, DOI 10.1137/1114037
NR 10
TC 2
Z9 2
U1 0
U2 0
PU INST MATHEMATICAL STATISTICS
PI HAYWARD
PA IMS BUSINESS OFFICE-SUITE 7, 3401 INVESTMENT BLVD, HAYWARD, CA 94545
SN 0003-4851
J9 ANN MATH STAT
PY 1972
VL 43
IS 1
BP 230
EP &
DI 10.1214/aoms/1177692715
PG 0
WC Mathematics; Statistics & Probability
SC Mathematics
GA L7489
UT WOS:A1972L748900019
ER

PT J
AU SUDBURY, A
   CLIFFORD, P
AF SUDBURY, A
   CLIFFORD, P
TI DIVISION OF A SEQUENCE OF RANDOM-VARIABLES TO FORM 2 APPROXIMATELY EQUAL
   SUMS
SO ANNALS OF MATHEMATICAL STATISTICS
LA English
DT Article
CR DARLING DA, 1953, ANN MATH STAT, V24, P239, DOI 10.1214/aoms/1177729030
   FELLER W., 1966, INTRO PROBABILITY TH, VII
   FLATTO L, 1962, SIAM REVIEW, V4
   Kendall M, 1963, GEOMETRICAL PROBABIL
   MORAN PAP, 1966, J APPL PROBAB, V3, P453, DOI 10.2307/3212131
   MORAN PAP, 1969, ADV APPL PROBAB, V1, P73, DOI 10.2307/1426409
NR 6
TC 0
Z9 0
U1 0
U2 0
PU INST MATHEMATICAL STATISTICS
PI CLEVELAND
PA 3163 SOMERSET DR, CLEVELAND, OH 44122 USA
SN 0003-4851
J9 ANN MATH STAT
JI Ann. Math. Stat.
PY 1972
VL 43
IS 1
BP 236
EP +
DI 10.1214/aoms/1177692716
PG 1
WC Mathematics; Statistics & Probability
SC Mathematics
GA L7489
UT WOS:A1972L748900020
ER

PT J
AU KEILSON, J
   STEUTEL, FW
AF KEILSON, J
   STEUTEL, FW
TI FAMILIES OF INFINITELY DIVISIBLE DISTRIBUTIONS CLOSED UNDER MIXING AND
   CONVOLUTION
SO ANNALS OF MATHEMATICAL STATISTICS
LA English
DT Article
CR FELLER W., 1966, INTRO PROBABILITY TH, VII
   GOLDIE C, 1967, PROC CAMB PHILOS S-M, V63, P1141
   KEILSON J, TO BE PUBLISHED
   KINGMAN JF, 1961, Q J MATH, V12, P283, DOI 10.1093/qmath/12.1.283
   LINNIK YV, 1964, DECOMPOSITIONS PROBA
   Lukacs E., 1960, CHARACTERISTIC FUNCT
   STEUTEL FW, 1968, ANN MATH STAT, V39, P1153, DOI 10.1214/aoms/1177698239
   STEUTEL FW, 1971, THESIS U AMSTERDAM
NR 8
TC 10
Z9 10
U1 0
U2 0
PU INST MATHEMATICAL STATISTICS
PI HAYWARD
PA IMS BUSINESS OFFICE-SUITE 7, 3401 INVESTMENT BLVD, HAYWARD, CA 94545
SN 0003-4851
J9 ANN MATH STAT
PY 1972
VL 43
IS 1
BP 242
EP &
DI 10.1214/aoms/1177692717
PG 0
WC Mathematics; Statistics & Probability
SC Mathematics
GA L7489
UT WOS:A1972L748900021
ER

PT J
AU MINEKA, J
AF MINEKA, J
TI LOCAL LIMIT THEOREMS AND RECURRENCE CONDITIONS FOR SUMS OF INDEPENDENT
   INTEGER-VALUED RANDOM-VARIABLES
SO ANNALS OF MATHEMATICAL STATISTICS
LA English
DT Article
CR Gnedenko B. V., 1954, LIMIT DISTRIBUTIONS
   MINEKA J, 1970, ANN MATH STAT, V41, P592, DOI 10.1214/aoms/1177697099
   OREY S, 1966, J MATH MECH, V15, P937
   Rozanov Yu. A., 1957, THEOR PROBAB APPL, V2, P260, DOI 10.1137/1102018
NR 4
TC 4
Z9 4
U1 0
U2 0
PU INST MATHEMATICAL STATISTICS
PI HAYWARD
PA IMS BUSINESS OFFICE-SUITE 7, 3401 INVESTMENT BLVD, HAYWARD, CA 94545
SN 0003-4851
J9 ANN MATH STAT
PY 1972
VL 43
IS 1
BP 251
EP &
DI 10.1214/aoms/1177692718
PG 0
WC Mathematics; Statistics & Probability
SC Mathematics
GA L7489
UT WOS:A1972L748900022
ER

PT J
AU DEMPSTER, AP
AF DEMPSTER, AP
TI CLASS OF RANDOM CONVEX POLYTOPES
SO ANNALS OF MATHEMATICAL STATISTICS
LA English
DT Article
CR DEMPSTER AP, 1967, ANN MATH STAT, V38, P325, DOI 10.1214/aoms/1177698950
   DEMPSTER AP, 1966, ANN MATH STAT, V37, P355, DOI 10.1214/aoms/1177699517
   DEMPSTER AP, 1968, J ROY STAT SOC B, V30, P205
   DEMPSTER AP, 1967, BIOMETRIKA, V54, P515, DOI 10.2307/2335042
   DEMPSTER AP, 1968, ANN MATH STAT, V39, P957, DOI 10.1214/aoms/1177698328
   DEMPSTER AP, 1969, ANN MATH STAT, V40, P953, DOI 10.1214/aoms/1177697600
NR 6
TC 3
Z9 3
U1 0
U2 0
PU INST MATHEMATICAL STATISTICS
PI HAYWARD
PA IMS BUSINESS OFFICE-SUITE 7, 3401 INVESTMENT BLVD, HAYWARD, CA 94545
SN 0003-4851
J9 ANN MATH STAT
PY 1972
VL 43
IS 1
BP 260
EP &
DI 10.1214/aoms/1177692719
PG 0
WC Mathematics; Statistics & Probability
SC Mathematics
GA L7489
UT WOS:A1972L748900023
ER

PT J
AU SAWYER, S
AF SAWYER, S
TI RATES OF CONVERGENCE FOR SOME FUNCTIONALS IN PROBABILITY
SO ANNALS OF MATHEMATICAL STATISTICS
LA English
DT Article
CR BREIMAN L, 1968, PROBABILITY, pCH13
   BURKHOLD.DL, 1966, ANN MATH STAT, V37, P1494, DOI 10.1214/aoms/1177699141
   Doob J. L., 1953, STOCHASTIC PROCESSES
   FRASER DF, 1971, THESIS BROWN U
   KAC M, 1947, ANN MATH ST, V18, P434
   KIEFER J, 1969, Z WAHRSCHEINLICHKEIT, V13, P321, DOI 10.1007/BF00539208
   Nagaev S.V., 1969, SIBERIAN MATH J, V10, P443
   NEVZOROV VB, 1969, THEOR PROBAB APPL+, V14, P682, DOI 10.1137/1114083
   ROSENKRANTZ WA, 1969, T AM MATH SOC, V139, P329, DOI 10.2307/1995326
   ROSENKRANTZ WA, 1967, T AM MATH SOC, V129, P542, DOI 10.2307/1994607
   SAWYER S, 1967, COMMUN PUR APPL MATH, V20, P647, DOI 10.1002/cpa.3160200403
   SAWYER S, 1968, T AM MATH SOC, V132, P363, DOI 10.2307/1994846
   SAZONOV VV, 1969, THEOR PROBAB APPL, V14, P640
   SKOROKHOD A, 1965, STUDIES THEORY RANDO, pCH7
   WALSH JB, 1967, P AM MATH SOC, V18, P129, DOI 10.2307/2035239
NR 15
TC 21
Z9 21
U1 0
U2 0
PU INST MATHEMATICAL STATISTICS
PI HAYWARD
PA IMS BUSINESS OFFICE-SUITE 7, 3401 INVESTMENT BLVD, HAYWARD, CA 94545
SN 0003-4851
J9 ANN MATH STAT
PY 1972
VL 43
IS 1
BP 273
EP &
DI 10.1214/aoms/1177692720
PG 0
WC Mathematics; Statistics & Probability
SC Mathematics
GA L7489
UT WOS:A1972L748900024
ER

PT J
AU PRESTON, C
AF PRESTON, C
TI CONTINUITY PROPERTIES OF SOME GAUSSIAN PROCESSES
SO ANNALS OF MATHEMATICAL STATISTICS
LA English
DT Article
CR Dudley R. M., 1967, J FUNCT ANAL, V1, P290, DOI 10.1016/0022-1236(67)90017-1
   GARSIA AM, 1970, INDIANA U MATH J, V20, P565, DOI 10.1512/iumj.1970.20.20046
   GARSIA AM, 1970, 6 P BERK S MATH STAT
   GARSIA AM, 1970, 1969 P S FUNCT AN MO
   Ito K., 1968, OSAKA J MATH, V5, P35
   JAIN NC, 1970, ANN MATH STAT, V41, P1360, DOI 10.1214/aoms/1177696914
   PRESTON C, 1971, INDIANA U MATH J, V20, P997, DOI 10.1512/iumj.1971.20.20095
NR 7
TC 20
Z9 20
U1 0
U2 0
PU INST MATHEMATICAL STATISTICS
PI HAYWARD
PA IMS BUSINESS OFFICE-SUITE 7, 3401 INVESTMENT BLVD, HAYWARD, CA 94545
SN 0003-4851
J9 ANN MATH STAT
PY 1972
VL 43
IS 1
BP 285
EP &
DI 10.1214/aoms/1177692721
PG 0
WC Mathematics; Statistics & Probability
SC Mathematics
GA L7489
UT WOS:A1972L748900025
ER

PT J
AU WEISS, NA
AF WEISS, NA
TI OCCUPATION TIME OF A SET BY COUNTABLY MANY RECURRENT RANDOM-WALKS
SO ANNALS OF MATHEMATICAL STATISTICS
LA English
DT Article
CR DERMAN C, 1955, T AM MATH SOC, V79, P541, DOI 10.2307/1993046
   FELLER W., 1966, INTRO PROBABILITY TH, VII
   Gnedenko B V, 1968, LIMIT DISTRIBUTIONS
   PORT SC, 1966, ANN MATH STAT, V37, P406, DOI 10.1214/aoms/1177699522
   PORT SC, 1969, J MATH ANAL APPL, V18, P345
   Spitzer F, 1964, PRINCIPLES RANDOM WA
   STONE C, 1968, ANN MATH STAT, V39, P1391
   WEISS NO, TO BE PUBLISHED
NR 8
TC 3
Z9 3
U1 1
U2 1
PU INST MATHEMATICAL STATISTICS
PI HAYWARD
PA IMS BUSINESS OFFICE-SUITE 7, 3401 INVESTMENT BLVD, HAYWARD, CA 94545
SN 0003-4851
J9 ANN MATH STAT
PY 1972
VL 43
IS 1
BP 293
EP &
DI 10.1214/aoms/1177692722
PG 0
WC Mathematics; Statistics & Probability
SC Mathematics
GA L7489
UT WOS:A1972L748900026
ER

PT J
AU SPITZER, F
AF SPITZER, F
TI VARIATIONAL CHARACTERIZATION OF FINITE MARKOV CHAINS
SO ANNALS OF MATHEMATICAL STATISTICS
LA English
DT Article
CR CHOQUET G, 1969, LECTURES ANALYSIS, V2
   Doob J. L., 1953, STOCHASTIC PROCESSES
   HOLLEY RH, TO BE PUBLISHED
   LANFORD OE, 1969, COMMUN MATH PHYS, V13, P194, DOI 10.1007/BF01645487
   RUELLE D, 1969, STATISTICAL MECHANIC
NR 5
TC 15
Z9 15
U1 0
U2 0
PU INST MATHEMATICAL STATISTICS
PI HAYWARD
PA IMS BUSINESS OFFICE-SUITE 7, 3401 INVESTMENT BLVD, HAYWARD, CA 94545
SN 0003-4851
J9 ANN MATH STAT
PY 1972
VL 43
IS 1
BP 303
EP &
DI 10.1214/aoms/1177692723
PG 0
WC Mathematics; Statistics & Probability
SC Mathematics
GA L7489
UT WOS:A1972L748900027
ER

PT J
AU HANNAN, J
   HUANG, JS
AF HANNAN, J
   HUANG, JS
TI STABILITY OF SYMMETRIZATION OF PRODUCT MEASURES WITH FEW DISTINCT
   FACTORS
SO ANNALS OF MATHEMATICAL STATISTICS
LA English
DT Article
CR HALMOS P. R., 1950, MEASURE THEORY
   HANNAN J, 1972, ANN MATH STAT, V43, P102, DOI 10.1214/aoms/1177692706
   HANNAN JF, 1955, ANN MATH STAT, V26, P37, DOI 10.1214/aoms/1177728591
   HANNAN JF, 1953, UNC68 I STAT MIM SER
   HORN S, 1970, ANN MATH STAT, V41, P2130, DOI 10.1214/aoms/1177696712
   HORN SD, 1968, 10 STANF U DEP STAT
   KAKUTANI S, 1948, ANN MATH, V49, P214, DOI 10.2307/1969123
   Loeve M., 1963, PROBABILITY THEORY
   1937, MATHEMATICAL TABLE 1, V6
   1964, HDB MATHEMATICAL FUN
NR 10
TC 9
Z9 9
U1 2
U2 2
PU INST MATHEMATICAL STATISTICS
PI HAYWARD
PA IMS BUSINESS OFFICE-SUITE 7, 3401 INVESTMENT BLVD, HAYWARD, CA 94545
SN 0003-4851
J9 ANN MATH STAT
PY 1972
VL 43
IS 1
BP 308
EP &
DI 10.1214/aoms/1177692724
PG 0
WC Mathematics; Statistics & Probability
SC Mathematics
GA L7489
UT WOS:A1972L748900028
ER

PT J
AU ELLIOTT, EO
AF ELLIOTT, EO
TI GENERALIZATION OF SEPARABLE STOCHASTIC-PROCESSES
SO ANNALS OF MATHEMATICAL STATISTICS
LA English
DT Article
CR DOOB JL, 1947, B AM MATH SOC, V53, P15, DOI 10.1090/S0002-9904-1947-08728-0
   Doob J. L., 1953, STOCHASTIC PROCESSES
   ELLIOTT EO, 1968, P AM MATH SOC, V19, P1089
   ELLIOTT EO, TO BE PUBLISHED
   ELLIOTT EO, 1964, T AM MATH SOC, V110, P245
NR 5
TC 0
Z9 0
U1 0
U2 0
PU INST MATHEMATICAL STATISTICS
PI HAYWARD
PA IMS BUSINESS OFFICE-SUITE 7, 3401 INVESTMENT BLVD, HAYWARD, CA 94545
SN 0003-4851
J9 ANN MATH STAT
PY 1972
VL 43
IS 1
BP 320
EP &
DI 10.1214/aoms/1177692725
PG 0
WC Mathematics; Statistics & Probability
SC Mathematics
GA L7489
UT WOS:A1972L748900029
ER

PT J
AU BONDAR, JV
AF BONDAR, JV
TI STRUCTURAL DISTRIBUTIONS WITHOUT EXACT TRANSITIVITY
SO ANNALS OF MATHEMATICAL STATISTICS
LA English
DT Article
CR FRASER DA, 1961, BIOMETRIKA, V48, P261, DOI 10.2307/2332749
   FRASER DAS, 1962, J ROY STAT SOC B, V24, P425
   Fraser D.A.S., 1968, STRUCTURE INFERENCE
   FRASER DAS, 1968, IMS M MADISON
   LEHMANN EL, 1959, TESTING STATISTICAL
   Montgomery D., 1955, TOPOLOGICAL TRANSFOR
   Nachbin L., 1965, THE HAAR INTEGRAL
   ROSENBLATT M, 1966, TECHNOMETRICS, V8, P367
   ROY AD, 1960, J ROY STAT SOC B, V22, P97
   SPROTT DA, 1960, J ROY STAT SOC B, V22, P312
NR 10
TC 4
Z9 4
U1 0
U2 0
PU INST MATHEMATICAL STATISTICS
PI HAYWARD
PA IMS BUSINESS OFFICE-SUITE 7, 3401 INVESTMENT BLVD, HAYWARD, CA 94545
SN 0003-4851
J9 ANN MATH STAT
PY 1972
VL 43
IS 1
BP 326
EP &
DI 10.1214/aoms/1177692726
PG 0
WC Mathematics; Statistics & Probability
SC Mathematics
GA L7489
UT WOS:A1972L748900030
ER

PT J
AU WIND, SL
AF WIND, SL
TI STEIN-JAMES ESTIMATORS OF A MULTIVARIATE LOCATION PARAMETER
SO ANNALS OF MATHEMATICAL STATISTICS
LA English
DT Note
CR Baranchik A, 1964, 51 STANF U DEP STAT
   COGBURN R, 1965, BERNOULLI BAYES LAPL, P24
   JAMES W, 1961, 4TH P BERK S MATH ST, V1, P361
   Raiffa H, 1961, APPLIED STATISTICAL
   WIND S, 1970, THESIS COLUMBIA U
NR 5
TC 4
Z9 4
U1 0
U2 1
PU INST MATHEMATICAL STATISTICS
PI HAYWARD
PA IMS BUSINESS OFFICE-SUITE 7, 3401 INVESTMENT BLVD, HAYWARD, CA 94545
SN 0003-4851
J9 ANN MATH STAT
PY 1972
VL 43
IS 1
BP 340
EP &
DI 10.1214/aoms/1177692727
PG 0
WC Mathematics; Statistics & Probability
SC Mathematics
GA L7489
UT WOS:A1972L748900031
ER

PT J
AU WAAL, DJD
AF WAAL, DJD
TI EXPECTED VALUES OF ELEMENTARY SYMMETRIC FUNCTIONS OF A NON-CENTRAL
   WISHART MATRIX
SO ANNALS OF MATHEMATICAL STATISTICS
LA English
DT Note
CR CONSTANT.AG, 1966, ANN MATH STAT, V37, P215, DOI 10.1214/aoms/1177699611
   CONSTANTINE AG, 1963, ANN MATH STAT, V34, P1270, DOI 10.1214/aoms/1177703863
   JAMES AT, 1964, ANN MATH STAT, V35, P475, DOI 10.1214/aoms/1177703550
   KHATRI CG, 1968, ANN MATH STAT, V39, P215, DOI 10.1214/aoms/1177698521
NR 4
TC 1
Z9 1
U1 0
U2 0
PU INST MATHEMATICAL STATISTICS
PI HAYWARD
PA IMS BUSINESS OFFICE-SUITE 7, 3401 INVESTMENT BLVD, HAYWARD, CA 94545
SN 0003-4851
J9 ANN MATH STAT
PY 1972
VL 43
IS 1
BP 344
EP &
PG 0
WC Mathematics; Statistics & Probability
SC Mathematics
GA L7489
UT WOS:A1972L748900032
ER

PT J
AU HUANG, JS
AF HUANG, JS
TI ROBBINS COMPOUND DECISION PROCEDURE
SO ANNALS OF MATHEMATICAL STATISTICS
LA English
DT Note
CR ROBBINS H, 1951, 2ND P BERK S MATH ST, P131
NR 1
TC 4
Z9 4
U1 0
U2 0
PU INST MATHEMATICAL STATISTICS
PI HAYWARD
PA IMS BUSINESS OFFICE-SUITE 7, 3401 INVESTMENT BLVD, HAYWARD, CA 94545
SN 0003-4851
J9 ANN MATH STAT
PY 1972
VL 43
IS 1
BP 348
EP &
DI 10.1214/aoms/1177692729
PG 0
WC Mathematics; Statistics & Probability
SC Mathematics
GA L7489
UT WOS:A1972L748900033
ER

PT J
AU HOGLUND, T
AF HOGLUND, T
TI ASYMPTOTIC NORMALITY OF SUMS OF MINIMA OF RANDOM-VARIABLES
SO ANNALS OF MATHEMATICAL STATISTICS
LA English
DT Note
CR FRANK O, 1966, SKAND AKTUAR J, P85
   GRENANDER U, 1965, ANN MATH STAT, V36, P1041, DOI 10.1214/aoms/1177700076
NR 2
TC 6
Z9 6
U1 0
U2 0
PU INST MATHEMATICAL STATISTICS
PI HAYWARD
PA IMS BUSINESS OFFICE-SUITE 7, 3401 INVESTMENT BLVD, HAYWARD, CA 94545
SN 0003-4851
J9 ANN MATH STAT
PY 1972
VL 43
IS 1
BP 351
EP &
DI 10.1214/aoms/1177692730
PG 0
WC Mathematics; Statistics & Probability
SC Mathematics
GA L7489
UT WOS:A1972L748900034
ER

PT J
AU MEILIJSON, I
AF MEILIJSON, I
TI LIMITING PROPERTIES OF MEAN RESIDUAL LIFETIME FUNCTION
SO ANNALS OF MATHEMATICAL STATISTICS
LA English
DT Note
CR BARLOW RE, 1963, ANN MATH STAT, V34, P375, DOI 10.1214/aoms/1177704147
   FELLER W., 1966, INTRO PROBABILITY TH, VII
   MEILIJSON I, 1969, THESIS U CALIFORNIA
NR 3
TC 24
Z9 25
U1 0
U2 1
PU INST MATHEMATICAL STATISTICS
PI CLEVELAND
PA 3163 SOMERSET DR, CLEVELAND, OH 44122 USA
SN 0003-4851
J9 ANN MATH STAT
JI Ann. Math. Stat.
PY 1972
VL 43
IS 1
BP 354
EP +
DI 10.1214/aoms/1177692731
PG 1
WC Mathematics; Statistics & Probability
SC Mathematics
GA L7489
UT WOS:A1972L748900035
ER

PT J
AU MIJNHEER, JL
AF MIJNHEER, JL
TI LAW OF ITERATED LOGARITHM FOR ASYMMETRIC STABLE LAW WITH CHARACTERISTIC
   EXPONENT ONE
SO ANNALS OF MATHEMATICAL STATISTICS
LA English
DT Note
CR BREIMAN L, 1968, ANN MATH STAT, V39, P1818, DOI 10.1214/aoms/1177698014
   CHOW YS, 1961, P NATL ACAD SCI USA, V47, P330, DOI 10.1073/pnas.47.3.330
   Cramer H., 1963, SANKHYA A, V25, P13
   Feller W, 1943, T AM MATH SOC, V54, P373, DOI 10.2307/1990253
   FELLER W., 1957, INTRO PROBABILITY TH, VI
   LIPSCHUTZ M, 1956, T AM MATH SOC, V81, P135, DOI 10.2307/1992856
   MILLER HD, 1967, ANN MATH STAT, V38, P751, DOI 10.1214/aoms/1177698868
   Skorohod A., 1961, SELECT TRANSL MATH S, V1, P157
   Spitzer F, 1964, PRINCIPLES RANDOM WA
NR 9
TC 3
Z9 3
U1 0
U2 0
PU INST MATHEMATICAL STATISTICS
PI HAYWARD
PA IMS BUSINESS OFFICE-SUITE 7, 3401 INVESTMENT BLVD, HAYWARD, CA 94545
SN 0003-4851
J9 ANN MATH STAT
PY 1972
VL 43
IS 1
BP 358
EP &
DI 10.1214/aoms/1177692732
PG 0
WC Mathematics; Statistics & Probability
SC Mathematics
GA L7489
UT WOS:A1972L748900036
ER

PT J
AU WOLFE, SJ
AF WOLFE, SJ
TI COMPLETE CONVERGENCE OF STABLE DISTRIBUTION FUNCTIONS
SO ANNALS OF MATHEMATICAL STATISTICS
LA English
DT Note
CR FISZ M, 1963, Z WAHRSCHEINLICHKEIT, V1, P335, DOI 10.1007/BF00533408
   Gnedenko B. V., 1954, LIMIT DISTRIBUTIONS
   KUBIK L, 1964, B ACAD POLON SC SMAP, V27, P397
   KUBIK L, 1962, STUD MATH, V21, P245
NR 4
TC 2
Z9 2
U1 0
U2 0
PU INST MATHEMATICAL STATISTICS
PI HAYWARD
PA IMS BUSINESS OFFICE-SUITE 7, 3401 INVESTMENT BLVD, HAYWARD, CA 94545
SN 0003-4851
J9 ANN MATH STAT
PY 1972
VL 43
IS 1
BP 363
EP &
DI 10.1214/aoms/1177692733
PG 0
WC Mathematics; Statistics & Probability
SC Mathematics
GA L7489
UT WOS:A1972L748900037
ER

PT J
AU OBRIEN, G
AF OBRIEN, G
TI COMPARISONS OF MARKOV PROCESSES
SO ANNALS OF MATHEMATICAL STATISTICS
LA English
DT Note
CR DALEY DJ, 1968, Z WAHRSCHEINLICHKEIT, V10, P305, DOI 10.1007/BF00531852
   Kalmykov G. I., 1962, THEOR PROBAB APPL, V7, P456, DOI 10.1137/1107043
   OBRIEN GL, 1971, THESIS DARTMOUTH COL
NR 3
TC 7
Z9 7
U1 0
U2 0
PU INST MATHEMATICAL STATISTICS
PI HAYWARD
PA IMS BUSINESS OFFICE-SUITE 7, 3401 INVESTMENT BLVD, HAYWARD, CA 94545
SN 0003-4851
J9 ANN MATH STAT
PY 1972
VL 43
IS 1
BP 365
EP &
DI 10.1214/aoms/1177692734
PG 0
WC Mathematics; Statistics & Probability
SC Mathematics
GA L7489
UT WOS:A1972L748900038
ER

PT J
AU RAO, KPSB
   RAO, MB
AF RAO, KPSB
   RAO, MB
TI REMARK ON NONATOMIC MEASURES
SO ANNALS OF MATHEMATICAL STATISTICS
LA English
DT Note
CR HALMOS P. R., 1950, MEASURE THEORY
NR 1
TC 2
Z9 2
U1 0
U2 0
PU INST MATHEMATICAL STATISTICS
PI HAYWARD
PA IMS BUSINESS OFFICE-SUITE 7, 3401 INVESTMENT BLVD, HAYWARD, CA 94545
SN 0003-4851
J9 ANN MATH STAT
PY 1972
VL 43
IS 1
BP 369
EP &
DI 10.1214/aoms/1177692735
PG 0
WC Mathematics; Statistics & Probability
SC Mathematics
GA L7489
UT WOS:A1972L748900039
ER

PT J
AU AGGARWAL, KR
AF AGGARWAL, KR
TI CONSTRUCTION OF TRIANGULAR PBIB DESIGN WITH PARAMETERS V=21, B=35, R=10,
   K=6, LAMBDA1=2 AND LAMBDA2=3
SO ANNALS OF MATHEMATICAL STATISTICS
LA English
DT Note
CR Bose RC, 1939, ANN EUGENIC, V9, P353
   CHANG L, 1965, SCIENTIA SINICA, V13, P1493
   Raghavarao D, 1971, CONSTRUCTIONS COMBIN
NR 3
TC 3
Z9 3
U1 0
U2 0
PU INST MATHEMATICAL STATISTICS
PI HAYWARD
PA IMS BUSINESS OFFICE-SUITE 7, 3401 INVESTMENT BLVD, HAYWARD, CA 94545
SN 0003-4851
J9 ANN MATH STAT
PY 1972
VL 43
IS 1
BP 371
EP &
DI 10.1214/aoms/1177692736
PG 0
WC Mathematics; Statistics & Probability
SC Mathematics
GA L7489
UT WOS:A1972L748900040
ER

PT J
AU ROSEN, B
AF ROSEN, B
TI ASYMPTOTIC THEORY FOR SUCCESSIVE SAMPLING WITH VARYING PROBABILITIES
   WITHOUT REPLACEMENT .1.
SO ANNALS OF MATHEMATICAL STATISTICS
LA English
DT Article
CR HAJEK J, 1964, ANN MATH STAT, V35, P1491, DOI 10.1214/aoms/1177700375
   Hajek J., 1960, PUBL MATH I HUNG, V5, P361
   Karlin S., 1968, TOTAL POSITIVITY
   ROSEN B, 1969, Z WAHRSCHEINLICHKEIT, V13, P256, DOI 10.1007/BF00539204
   ROSEN B, 1969, Z WAHRSCHEINLICHKEIT, V13, P221, DOI 10.1007/BF00539203
   ROSEN B, 1970, ANN MATH STAT, V41, P1952, DOI 10.1214/aoms/1177696696
   Sukhatme P. V., 1970, SAMPLING THEORY SURV
NR 7
TC 48
Z9 49
U1 0
U2 0
PU INST MATHEMATICAL STATISTICS
PI HAYWARD
PA IMS BUSINESS OFFICE-SUITE 7, 3401 INVESTMENT BLVD, HAYWARD, CA 94545
SN 0003-4851
J9 ANN MATH STAT
PY 1972
VL 43
IS 2
BP 373
EP &
DI 10.1214/aoms/1177692620
PG 0
WC Mathematics; Statistics & Probability
SC Mathematics
GA M3132
UT WOS:A1972M313200001
ER

PT J
AU SPJOTVOLL, E
AF SPJOTVOLL, E
TI OPTIMALITY OF SOME MULTIPLE COMPARISON PROCEDURES
SO ANNALS OF MATHEMATICAL STATISTICS
LA English
DT Article
CR BECHHOFER RE, 1968, TECHNOMETRICS, V10, P715, DOI 10.2307/1267454
   Cochran W. G., 1957, EXPERIMENTAL DESIGNS
   DUNCAN DB, 1955, BIOMETRICS, V11, P1, DOI 10.2307/3001478
   DUNCAN DB, 1965, TECHNOMETRICS, V7, P171, DOI 10.2307/1266670
   DUNCAN DB, 1957, BIOMETRICS, V13, P164, DOI 10.2307/2527799
   DUNN OJ, 1965, J AM STAT ASSOC, V60, P573, DOI 10.2307/2282692
   DUNN OJ, 1961, J AM STAT ASSOC, V56, P52, DOI 10.2307/2282330
   DUNNETT CW, 1955, J AM STAT ASSOC, V50, P1096
   DUNNETT CW, 1964, BIOMETRICS, V20, P482, DOI 10.2307/2528490
   GOLD RZ, 1963, ANN MATH STAT, V34, P56, DOI 10.1214/aoms/1177704242
   GOODMAN LA, 1964, J ROY STAT SOC B, V26, P86
   GOODMAN LA, 1964, ANN MATH STAT, V35, P716, DOI 10.1214/aoms/1177703569
   GOODMAN LA, 1965, TECHNOMETRICS, V7, P247, DOI 10.2307/1266673
   KRAMER CY, 1957, BIOMETRICS, V13, P13, DOI 10.2307/3001898
   KRAMER CY, 1956, BIOMETRICS, V12, P307, DOI 10.2307/3001469
   LEHMANN EL, 1961, ANN MATH STAT, V32, P990, DOI 10.1214/aoms/1177704841
   LEHMANN EL, 1957, ANN MATH STAT, V28, P547, DOI 10.1214/aoms/1177706873
   LEHMANN EL, 1957, ANN MATH STAT, V28, P1, DOI 10.1214/aoms/1177707034
   LEHMANN EL, 1959, TESTING STATISTICAL
   MILLER RG, 1966, SIMULTANEOUS STATIST
   QUESENBERRY CP, 1964, TECHNOMETRICS, V6, P191, DOI 10.2307/1266151
   SCHENCK H, 1970, ARCH EISENHUTTENWES, V41, P1, DOI 10.1214/aoms/1177697184
   SCHEFFE H, 1959, ANALYSIS VARIANCE
   Steffens F., 1970, J AM STAT ASSOC, V65, P1639, DOI 10.2307/2284347
NR 24
TC 43
Z9 43
U1 2
U2 3
PU INST MATHEMATICAL STATISTICS
PI CLEVELAND
PA 3163 SOMERSET DR, CLEVELAND, OH 44122 USA
SN 0003-4851
J9 ANN MATH STAT
JI Ann. Math. Stat.
PY 1972
VL 43
IS 2
BP 398
EP +
DI 10.1214/aoms/1177692621
PG 1
WC Mathematics; Statistics & Probability
SC Mathematics
GA M3132
UT WOS:A1972M313200002
ER

PT J
AU SHORACK, GR
AF SHORACK, GR
TI FUNCTIONS OF ORDER STATISTICS
SO ANNALS OF MATHEMATICAL STATISTICS
LA English
DT Article
CR CHERNOFF H, 1967, ANN MATH STAT, V38, P52, DOI 10.1214/aoms/1177699058
   CROW EL, 1967, J AM STAT ASSOC, V62, P353, DOI 10.2307/2283968
   PYKE R, 1968, ANN MATH STAT, V39, P755, DOI 10.1214/aoms/1177698309
   SHORACK G, 1970, 20 U WASH MATH DEP T
   SHORACK G, 1971, 26 U WASH MATH DEPT
   SHORACK G, 1970, 23 U WASH MATH DEP T
   SHORACK GR, 1969, ANN MATH STAT, V40, P2041, DOI 10.1214/aoms/1177697284
   STIGLER SM, 1969, ANN MATH STAT, V40, P770, DOI 10.1214/aoms/1177697587
NR 8
TC 101
Z9 101
U1 1
U2 1
PU INST MATHEMATICAL STATISTICS
PI HAYWARD
PA IMS BUSINESS OFFICE-SUITE 7, 3401 INVESTMENT BLVD, HAYWARD, CA 94545
SN 0003-4851
J9 ANN MATH STAT
PY 1972
VL 43
IS 2
BP 412
EP &
DI 10.1214/aoms/1177692622
PG 0
WC Mathematics; Statistics & Probability
SC Mathematics
GA M3132
UT WOS:A1972M313200003
ER

PT J
AU BURDICK, DL
AF BURDICK, DL
TI DISTRIBUTION FREE TESTS FOR SYMMETRY BASED ON NUMBER OF POSITIVE SUMS
SO ANNALS OF MATHEMATICAL STATISTICS
LA English
DT Article
CR FRIEDMAN N, 1966, 119 U NEW MEX TECHN
   HARTIGAN JA, 1969, J AM STAT ASSOC, V64, P1303, DOI 10.2307/2286069
   HOBBY C, 1963, ANN MATH STAT, V34, P1233, DOI 10.1214/aoms/1177703858
   KRAFT CH, 1964, ANN MATH STAT, V35, P1359, DOI 10.1214/aoms/1177703296
   LEHMANN EL, 1959, TESTING STATISTICAL
   SPARREANDERSEN E, 1949, SKAND AKTUARIETIDSKS, V36, P27
NR 6
TC 1
Z9 1
U1 0
U2 0
PU INST MATHEMATICAL STATISTICS
PI HAYWARD
PA IMS BUSINESS OFFICE-SUITE 7, 3401 INVESTMENT BLVD, HAYWARD, CA 94545
SN 0003-4851
J9 ANN MATH STAT
PY 1972
VL 43
IS 2
BP 428
EP &
DI 10.1214/aoms/1177692623
PG 0
WC Mathematics; Statistics & Probability
SC Mathematics
GA M3132
UT WOS:A1972M313200004
ER

PT J
AU WELSCH, RE
AF WELSCH, RE
TI LIMIT LAWS FOR EXTREME ORDER STATISTICS FROM STRONG MIXING PROCESSES
SO ANNALS OF MATHEMATICAL STATISTICS
LA English
DT Article
CR BERMAN SM, 1961, ANN I STAT MATH, V13, P217, DOI 10.1007/BF02868871
   Gnedenko B, 1943, ANN MATH, V44, P423, DOI 10.2307/1968974
   Gnedenko B V, 1968, LIMIT DISTRIBUTIONS
   Ibragimov I.A., 1962, THEOR PROBAB APPL, V7, P349, DOI DOI 10.1137/1107036
   LOYNES RM, 1965, ANN MATH STAT, V36, P993, DOI 10.1214/aoms/1177700071
   NEWELL GF, 1964, ANN MATH STAT, V35, P1322, DOI 10.1214/aoms/1177703288
   SIBUYA M, 1960, ANN I STAT MATH, V11, P195
   SMIRNOV NV, 1952, 67 AM MATH SOC T
   WELSCH RE, 1969, THESIS STANFORD U
NR 9
TC 14
Z9 14
U1 0
U2 0
PU INST MATHEMATICAL STATISTICS
PI HAYWARD
PA IMS BUSINESS OFFICE-SUITE 7, 3401 INVESTMENT BLVD, HAYWARD, CA 94545
SN 0003-4851
J9 ANN MATH STAT
PY 1972
VL 43
IS 2
BP 439
EP &
DI 10.1214/aoms/1177692624
PG 0
WC Mathematics; Statistics & Probability
SC Mathematics
GA M3132
UT WOS:A1972M313200005
ER

PT J
AU STROUD, TWF
AF STROUD, TWF
TI FIXED ALTERNATIVES AND WALDS FORMULATION OF NON-CENTRAL ASYMPTOTIC
   BEHAVIOR OF LIKELIHOOD RATIO STATISTIC
SO ANNALS OF MATHEMATICAL STATISTICS
LA English
DT Article
CR CHERNOFF H, 1956, ANN MATH STAT, V27, P1, DOI 10.1214/aoms/1177728347
   DAVIDSON RR, 1970, SANKHYA SER A, V32, P209
   FEDER PI, 1968, ANN MATH STAT, V39, P2044, DOI 10.1214/aoms/1177698032
   Polya G, 1920, MATH Z, V8, P171, DOI 10.1007/BF01206525
   Rao C.R, 1965, LINEAR STATISTICAL I
   Wald A, 1943, T AM MATH SOC, V54, P426, DOI 10.2307/1990256
   Wilks SS, 1938, ANN MATH STAT, V9, P60, DOI 10.1214/aoms/1177732360
NR 7
TC 26
Z9 26
U1 2
U2 3
PU INST MATHEMATICAL STATISTICS
PI HAYWARD
PA IMS BUSINESS OFFICE-SUITE 7, 3401 INVESTMENT BLVD, HAYWARD, CA 94545
SN 0003-4851
J9 ANN MATH STAT
PY 1972
VL 43
IS 2
BP 447
EP &
DI 10.1214/aoms/1177692625
PG 0
WC Mathematics; Statistics & Probability
SC Mathematics
GA M3132
UT WOS:A1972M313200006
ER

PT J
AU KRAFT, CH
   VANEEDEN, C
   OLKIN, I
AF KRAFT, CH
   VANEEDEN, C
   OLKIN, I
TI ESTIMATION AND TESTING FOR DIFFERENCES IN MAGNITUDE OR DISPLACEMENT IN
   MEAN VECTORS OF 2 MULTIVARIATE NORMAL POPULATIONS
SO ANNALS OF MATHEMATICAL STATISTICS
LA English
DT Article
CR ANDERSON TW, 1951, ANN MATH STAT, V22, P327, DOI 10.1214/aoms/1177729580
   Anderson T. W., 1958, INTRO MULTIVARIATE S
   Cochran WG, 1943, ANN MATH STAT, V14, P205, DOI 10.1214/aoms/1177731414
   Paulson E, 1942, ANN MATH STAT, V13, P440, DOI 10.1214/aoms/1177731543
   SITGREAVES R, 1952, ANN MATH STAT, V23, P263, DOI 10.1214/aoms/1177729443
   Wald A, 1943, T AM MATH SOC, V54, P426, DOI 10.2307/1990256
NR 6
TC 10
Z9 10
U1 0
U2 0
PU INST MATHEMATICAL STATISTICS
PI HAYWARD
PA IMS BUSINESS OFFICE-SUITE 7, 3401 INVESTMENT BLVD, HAYWARD, CA 94545
SN 0003-4851
J9 ANN MATH STAT
PY 1972
VL 43
IS 2
BP 455
EP &
DI 10.1214/aoms/1177692626
PG 0
WC Mathematics; Statistics & Probability
SC Mathematics
GA M3132
UT WOS:A1972M313200007
ER

PT J
AU RAO, JS
AF RAO, JS
TI BAHADUR EFFICIENCIES OF SOME TESTS FOR UNIFORMITY ON CIRCLE
SO ANNALS OF MATHEMATICAL STATISTICS
LA English
DT Article
RI Jammalamadaka, Sreenivasa/A-9797-2008
OI Jammalamadaka, Sreenivasa/0000-0003-4479-4175
CR ABRAHAMSON IG, 1967, ANN MATH STAT, V38, P1475, DOI 10.1214/aoms/1177698702
   AJNE B, 1968, BIOMETRIKA, V55, P343, DOI 10.1093/biomet/55.2.343
   BAHADUR RR, 1960, ANN MATH STAT, V31, P276, DOI 10.1214/aoms/1177705894
   BAHADUR RR, 1967, ANN MATH STAT, V38, P303, DOI 10.1214/aoms/1177698949
   Bahadur R. R., 1960, SANKHYA, V22, P229
   BERAN RJ, 1969, ANN MATH STAT, V40, P1196, DOI 10.1214/aoms/1177697496
   GLESER LJ, 1964, ANN MATH STAT, V35, P1537, DOI 10.1214/aoms/1177700377
   GREENWOOD JA, 1955, ANN MATH STAT, V26, P233, DOI 10.1214/aoms/1177728540
   HODGES JL, 1955, ANN MATH STAT, V26, P523, DOI 10.1214/aoms/1177728498
   Kuiper N. H., 1960, NED AKAD WET P A, V63, P38
   PARZEN E, 1954, U CALIFORNIA PUBLICA, V2, P23
   RAO JS, 1969, THESIS INDIAN STATIS
   SETHURAMAN J, 1964, ANN MATH STAT, V35, P1304, DOI 10.1214/aoms/1177703286
   SETHURAMAN J, 1969, NONPARAMETRIC TECHNI, P405
   SHERMAN B, 1950, ANN MATH STAT, V21, P339, DOI 10.1214/aoms/1177729794
   WATSON GS, 1961, BIOMETRIKA, V48, P109, DOI 10.2307/2333135
NR 16
TC 11
Z9 11
U1 0
U2 0
PU INST MATHEMATICAL STATISTICS
PI HAYWARD
PA IMS BUSINESS OFFICE-SUITE 7, 3401 INVESTMENT BLVD, HAYWARD, CA 94545
SN 0003-4851
J9 ANN MATH STAT
PY 1972
VL 43
IS 2
BP 468
EP &
DI 10.1214/aoms/1177692627
PG 0
WC Mathematics; Statistics & Probability
SC Mathematics
GA M3132
UT WOS:A1972M313200008
ER

PT J
AU ROBINSON, J
AF ROBINSON, J
TI RANDOMIZATION MODEL FOR INCOMPLETE BLOCK DESIGNS
SO ANNALS OF MATHEMATICAL STATISTICS
LA English
DT Article
CR Fraser D.A.S., 1957, NONPARAMETRIC METHOD
   HAJEK J, 1961, ANN MATH STAT, V32, P506, DOI 10.1214/aoms/1177705057
   HOEFFDING W, 1951, ANN MATH STAT, V22, P558, DOI 10.1214/aoms/1177729545
   RAO CR, 1947, J AM STAT ASSOC, V42, P541, DOI 10.2307/2280011
   SILVEY SD, 1954, P GLASGOW MATHEMATIC, V2, P47
   Wald A, 1944, ANN MATH STAT, V15, P358, DOI 10.1214/aoms/1177731207
NR 6
TC 3
Z9 3
U1 0
U2 0
PU INST MATHEMATICAL STATISTICS
PI HAYWARD
PA IMS BUSINESS OFFICE-SUITE 7, 3401 INVESTMENT BLVD, HAYWARD, CA 94545
SN 0003-4851
J9 ANN MATH STAT
PY 1972
VL 43
IS 2
BP 480
EP &
DI 10.1214/aoms/1177692628
PG 0
WC Mathematics; Statistics & Probability
SC Mathematics
GA M3132
UT WOS:A1972M313200009
ER

PT J
AU MORIMOTO, H
AF MORIMOTO, H
TI STATISTICAL STRUCTURE OF PROBLEM OF SAMPLING FROM FINITE POPULATIONS
SO ANNALS OF MATHEMATICAL STATISTICS
LA English
DT Article
CR BASU D, 1969, 36TH P SESS INT STAT, P850
   BLACKWELL D, 1954, THEORY GAMES STATIST
   KUNEN A, 1968, SURVEY RECENT RESULT
NR 3
TC 4
Z9 4
U1 0
U2 0
PU INST MATHEMATICAL STATISTICS
PI HAYWARD
PA IMS BUSINESS OFFICE-SUITE 7, 3401 INVESTMENT BLVD, HAYWARD, CA 94545
SN 0003-4851
J9 ANN MATH STAT
PY 1972
VL 43
IS 2
BP 490
EP &
DI 10.1214/aoms/1177692629
PG 0
WC Mathematics; Statistics & Probability
SC Mathematics
GA M3132
UT WOS:A1972M313200010
ER

PT J
AU SUDDERTH, WD
AF SUDDERTH, WD
TI DUBINS AND SAVAGE CHARACTERIZATION OF OPTIMAL STRATEGIES
SO ANNALS OF MATHEMATICAL STATISTICS
LA English
DT Article
CR Blackwell D, 1965, ANN MATH STAT, V36, P226, DOI DOI 10.1214/AOMS/1177700285
   DUBINS L, 1964, PAC J MATH, V14, P1211
   Dubins Lester E., 1965, HOW GAMBLE YOU MUST
   Mackey G. W., 1957, T AM MATH SOC, V85, P134, DOI 10.2307/1992966
   Meyer P. A., 1966, PROBABILITY POTENTIA
   Parthasarathy K. R., 1967, PROBABILITY MEASURES
   STRAUCH RE, 1968, T AM MATH SOC, V130, P184
   STRAUCH RE, 1967, T AM MATH SOC, V126, P64
   SUDDERTH WD, 1969, T AM MATH SOC, V135, P399, DOI 10.2307/1995023
   SUDDERTH WD, 1971, ANN MATH STAT, V42, P260, DOI 10.1214/aoms/1177693510
   SUDDERTH WD, 1969, ANN MATH STAT, V40, P2211, DOI 10.1214/aoms/1177697303
   SUDDERTH WD, 1971, ANN MATH STAT, V42, P2143, DOI 10.1214/aoms/1177693082
NR 12
TC 15
Z9 15
U1 0
U2 0
PU INST MATHEMATICAL STATISTICS
PI HAYWARD
PA IMS BUSINESS OFFICE-SUITE 7, 3401 INVESTMENT BLVD, HAYWARD, CA 94545
SN 0003-4851
J9 ANN MATH STAT
PY 1972
VL 43
IS 2
BP 498
EP &
DI 10.1214/aoms/1177692630
PG 0
WC Mathematics; Statistics & Probability
SC Mathematics
GA M3132
UT WOS:A1972M313200011
ER

PT J
AU MALLOWS, CL
AF MALLOWS, CL
TI NOTE ON ASYMPTOTIC JOINT NORMALITY
SO ANNALS OF MATHEMATICAL STATISTICS
LA English
DT Article
CR ARVESEN JN, 1969, ANN MATH STAT, V40, P2076, DOI 10.1214/aoms/1177697287
   BICKEL PJ, 1970, PERSONAL COMMUNICATI
   Daniel C, 1959, TECHNOMETRICS, V1, P311, DOI [10.1080/00401706.1959.10489866, DOI 10.1080/00401706.1959.10489866]
   Loeve M, 1960, PROBABILITY THEORY
   MALLOWS CL, 1967, J APPL PROBAB, V4, P313, DOI 10.2307/3212026
   MALLOWS CL, 1969, JOINT NORMALITY INDU
   MOSTELLER F, 1968, HDB SOCIAL PSYCHOLOG, V2, pCH10
NR 7
TC 94
Z9 94
U1 0
U2 1
PU INST MATHEMATICAL STATISTICS
PI HAYWARD
PA IMS BUSINESS OFFICE-SUITE 7, 3401 INVESTMENT BLVD, HAYWARD, CA 94545
SN 0003-4851
J9 ANN MATH STAT
PY 1972
VL 43
IS 2
BP 508
EP &
DI 10.1214/aoms/1177692631
PG 0
WC Mathematics; Statistics & Probability
SC Mathematics
GA M3132
UT WOS:A1972M313200012
ER

PT J
AU GALAMBOS, J
AF GALAMBOS, J
TI DISTRIBUTION OF MAXIMUM OF RANDOM-VARIABLES
SO ANNALS OF MATHEMATICAL STATISTICS
LA English
DT Article
CR DAVID HA, 1970, ORDER STATISTICS
   GALAMBOS J, 1970, Q J MATH, V21, P177, DOI 10.1093/qmath/21.2.177
   GALAMBOS J, 1970, GHANA J SCI, V10, P11
   Galambos J., 1966, STUD SCI MATH HUNG, V1, P39
   GALAMBOS J, TO BE PUBLISHED
   JUNCOSA ML, 1949, DUKE MATH J, V16, P609, DOI 10.1215/S0012-7094-49-01658-0
   LOEVE M, 1942, ANN U LYON A, V5, P55
   LOYNES RM, 1965, ANN MATH STAT, V36, P993, DOI 10.1214/aoms/1177700071
   RENYI A, 1961, MAGYAR TUD AKAD MAT, V11, P79
   WATSON GS, 1954, ANN MATH STAT, V25, P798, DOI 10.1214/aoms/1177728670
NR 10
TC 19
Z9 19
U1 0
U2 1
PU INST MATHEMATICAL STATISTICS
PI HAYWARD
PA IMS BUSINESS OFFICE-SUITE 7, 3401 INVESTMENT BLVD, HAYWARD, CA 94545
SN 0003-4851
J9 ANN MATH STAT
PY 1972
VL 43
IS 2
BP 516
EP &
DI 10.1214/aoms/1177692632
PG 0
WC Mathematics; Statistics & Probability
SC Mathematics
GA M3132
UT WOS:A1972M313200013
ER

PT J
AU MARCUS, MB
AF MARCUS, MB
TI UPPER BOUNDS FOR ASYMPTOTIC MAXIMA OF CONTINUOUS GAUSSIAN PROCESSES
SO ANNALS OF MATHEMATICAL STATISTICS
LA English
DT Article
CR BERMAN SM, TO BE PUBLISHED
   FERNIQUE X, 1964, CR HEBD ACAD SCI, V258, P6058
   MARCUS M, 1970, ANN MATH STAT, V41, P305, DOI 10.1214/aoms/1177697209
   MARCUS MB, 1970, T AM MATH SOC, V151, P377, DOI 10.2307/1995502
   MARCUS MB, 1968, T AM MATH SOC, V134, P29, DOI 10.2307/1994825
   MARCUS MB, 1971, 6 P BERK S MATH STAT
   NISIO M, 1967, OSAKA J MATH, V4, P313
   OREY S, 1971, 6 P BERK S MATH STAT
   PICKANDS J, 1967, Z WAHRSCHEINLICHKEIT, V7, P190, DOI 10.1007/BF00532637
   PICKANDS J, 1969, T AM MATH SOC, V145, P75, DOI 10.2307/1995059
   WATANABE H, 1970, T AM MATH SOC, V148, P211
NR 11
TC 12
Z9 12
U1 0
U2 0
PU INST MATHEMATICAL STATISTICS
PI HAYWARD
PA IMS BUSINESS OFFICE-SUITE 7, 3401 INVESTMENT BLVD, HAYWARD, CA 94545
SN 0003-4851
J9 ANN MATH STAT
PY 1972
VL 43
IS 2
BP 522
EP &
DI 10.1214/aoms/1177692633
PG 0
WC Mathematics; Statistics & Probability
SC Mathematics
GA M3132
UT WOS:A1972M313200014
ER

PT J
AU BRILLINGER, DR
AF BRILLINGER, DR
TI NUMBER OF SOLUTIONS OF SYSTEMS OF RANDOM EQUATIONS
SO ANNALS OF MATHEMATICAL STATISTICS
LA English
DT Article
CR BOCHNER S, 1960, HARMONIC ANALYSIS TH
   Cramer H, 1967, STATIONARY RELATED S
   Federer H., 1969, GEOMETRIC MEASURE TH
   Kac M., 1943, B AM MATH SOC, V49, P938, DOI 10.1090/S0002-9904-1943-07912-8
   LEADBETTER MR, 1966, ANN MATH STAT, V37, P260, DOI 10.1214/aoms/1177699615
   LITTLEWOOD JE, 1948, ANN MATH, V49, P885, DOI 10.2307/1969404
   LONGUETHIGGINS MS, 1957, PHILOS TR R SOC S-A, V249, P321, DOI 10.1098/rsta.1957.0002
   Offord A. C., 1965, P LONDON MATH SOC A, V14a, P199
   Offord A. C., 1967, INDIAN J MATH, V9, P175
   PALEY R. E. A. C., 1934, FOURIER TRANSFORMS C
   RADO T., 1955, CONTINUOUS TRANSFORM
   RICE SO, 1945, AT&T TECH J, V24, P46
   Srinivasan S. K., 1969, STOCHASTIC THEORY CA
   Whitney H., 1957, GEOMETRIC INTEGRATIO
NR 14
TC 14
Z9 14
U1 0
U2 0
PU INST MATHEMATICAL STATISTICS
PI CLEVELAND
PA 3163 SOMERSET DR, CLEVELAND, OH 44122 USA
SN 0003-4851
J9 ANN MATH STAT
JI Ann. Math. Stat.
PY 1972
VL 43
IS 2
BP 534
EP +
DI 10.1214/aoms/1177692634
PG 1
WC Mathematics; Statistics & Probability
SC Mathematics
GA M3132
UT WOS:A1972M313200015
ER

PT J
AU MUREIKA, RA
AF MUREIKA, RA
TI MAXIMIZATION OF ENTROPY OF DISCRETE DENUMERABLY-VALUED RANDOM-VARIABLES
   WITH KNOWN MEAN
SO ANNALS OF MATHEMATICAL STATISTICS
LA English
DT Article
CR FEINSTEIN A, 1958, FOUNDATIONS INFORMAT
   JAYNES ET, 1957, PHYS REV, V106, P620, DOI 10.1103/PhysRev.106.620
   TRIBUS M, 1962, RELIABILITY RECENT D
NR 3
TC 2
Z9 2
U1 0
U2 1
PU INST MATHEMATICAL STATISTICS
PI HAYWARD
PA IMS BUSINESS OFFICE-SUITE 7, 3401 INVESTMENT BLVD, HAYWARD, CA 94545
SN 0003-4851
J9 ANN MATH STAT
PY 1972
VL 43
IS 2
BP 541
EP &
DI 10.1214/aoms/1177692635
PG 0
WC Mathematics; Statistics & Probability
SC Mathematics
GA M3132
UT WOS:A1972M313200016
ER

PT J
AU PFANZAGL, J
AF PFANZAGL, J
TI TRANSFORMATION GROUPS AND SUFFICIENT STATISTICS
SO ANNALS OF MATHEMATICAL STATISTICS
LA English
DT Article
CR BERK RH, 1967, ANN MATH STAT, V38, P1436, DOI 10.1214/aoms/1177698698
   BORGES R, 1965, ANN MATH STAT, V36, P261, DOI 10.1214/aoms/1177700287
   BROWN L, 1964, ANN MATH STAT, V35, P1456, DOI 10.1214/aoms/1177700373
   BROWN LM, TO BE PUBLISHED
   DENNY JL, 1970, ANN MATH STAT, V41, P401, DOI 10.1214/aoms/1177697079
   DENNY JL, 1964, FUND MATH, V55, P95
   KELKER D, 1970, ANN MATH STAT, V41, P1086, DOI 10.1214/aoms/1177696988
   KOOPMAN LH, 1936, T AM MATH SOC, V39, P399
   LAUBE G, TO BE PUBLISHED
   LEHMANN EL, 1959, TESTING STATISTICAL
   LINDLEY DV, 1958, J ROY STAT SOC B, V20, P102
   Parthasarathy K. R., 1967, PROBABILITY MEASURES
   PFANZAGL J, AEQUATIONES MATH, V6, P120
   PFANZGL J, 1970, AEQUATIONES MATH, V4, P139
   Pontryagin L. S., 1966, TOPOLOGICAL GROUPS
NR 15
TC 6
Z9 6
U1 1
U2 2
PU INST MATHEMATICAL STATISTICS
PI HAYWARD
PA IMS BUSINESS OFFICE-SUITE 7, 3401 INVESTMENT BLVD, HAYWARD, CA 94545
SN 0003-4851
J9 ANN MATH STAT
PY 1972
VL 43
IS 2
BP 553
EP &
DI 10.1214/aoms/1177692636
PG 0
WC Mathematics; Statistics & Probability
SC Mathematics
GA M3132
UT WOS:A1972M313200017
ER

PT J
AU LIN, M
AF LIN, M
TI STRONG RATION LIMIT THEOREMS FOR MARKOV PROCESSES
SO ANNALS OF MATHEMATICAL STATISTICS
LA English
DT Article
CR DUNFORD N., 1958, LINEAR OPERATORS 1
   FOGUEL SR, 1963, PAC J MATH, V13, P551
   FOGUEL SR, 1968, ISRAEL J MATH, V6, P1, DOI 10.1007/BF02771598
   Foguel S.R., 1969, ERGODIC THEORY MARKO
   FOGUEL SR, 1969, ISRAEL J MATH, V7, P384, DOI 10.1007/BF02788871
   FOGUEL SR, TO BE PUBLISHED
   HAJIAN AB, 1965, T AM MATH SOC, V117, P371
   HOROWITZ S, 1969, ISRAEL J MATH, V7, P311, DOI 10.1007/BF02788864
   JAIN NC, 1969, ANN MATH STAT, V40, P986, DOI 10.1214/aoms/1177697603
   Krengel U., 1966, Z WAHRSCHEINLICHKEIT, V6, P302, DOI 10.1007/BF00537829
   LEVITAN ML, 1970, Z WAHRSCHEINLICHKEIT, V15, P29, DOI 10.1007/BF01041973
   LIN M, 1970, ISRAEL J MATH, V8, P165, DOI 10.1007/BF02771312
   MOY SC, 1965, T AM MATH SOC, V117, P68, DOI 10.2307/1994197
   OREY S, 1961, B AM MATH SOC, V67, P571, DOI 10.1090/S0002-9904-1961-10694-0
NR 14
TC 4
Z9 4
U1 0
U2 0
PU INST MATHEMATICAL STATISTICS
PI HAYWARD
PA IMS BUSINESS OFFICE-SUITE 7, 3401 INVESTMENT BLVD, HAYWARD, CA 94545
SN 0003-4851
J9 ANN MATH STAT
PY 1972
VL 43
IS 2
BP 569
EP &
DI 10.1214/aoms/1177692637
PG 0
WC Mathematics; Statistics & Probability
SC Mathematics
GA M3132
UT WOS:A1972M313200018
ER

PT J
AU QUALLS, C
   WATANABE, H
AF QUALLS, C
   WATANABE, H
TI ASYMPTOTIC PROPERTIES OF GAUSSIAN PROCESSES
SO ANNALS OF MATHEMATICAL STATISTICS
LA English
DT Article
CR Adamovic D. D., 1966, MAT VESNIK, V3, P123
   ADAMOVICH D, 1966, MAT VESNIK, V3, P161
   BERMAN SM, IN PRESS
   FELLER W., 1966, INTRO PROBABILITY TH, VII
   Karamata J., 1930, MATH CLUJ, V4, P38
   KONO N, 1970, MATH KYOTO U, V10, P493
   MARCUS MB, 1968, T AM MATH SOC, V134, P29, DOI 10.2307/1994825
   PICKANDS J, 1969, T AM MATH SOC, V145, P75, DOI 10.2307/1995059
   PICKANDS J, 1969, T AM MATH SOC, V145, P51, DOI 10.2307/1995058
   Pitman E.J.G., 1968, J AUSTR MATH SOC A, V8, P422
   QUALLS C, TO BE PUBLISHED
   SIRAO T, 1970, T AM MATH SOC, V147, P301, DOI 10.2307/1995196
   SLEPIAN D, 1962, BELL SYST TECH J, V41, P463
   WATANABE H, 1970, T AM MATH SOC, V148, P233, DOI 10.2307/1995049
NR 14
TC 52
Z9 54
U1 0
U2 0
PU INST MATHEMATICAL STATISTICS
PI CLEVELAND
PA 3163 SOMERSET DR, CLEVELAND, OH 44122 USA
SN 0003-4851
J9 ANN MATH STAT
JI Ann. Math. Stat.
PY 1972
VL 43
IS 2
BP 580
EP +
DI 10.1214/aoms/1177692638
PG 1
WC Mathematics; Statistics & Probability
SC Mathematics
GA M3132
UT WOS:A1972M313200019
ER

PT J
AU MILLAR, PW
AF MILLAR, PW
TI SOME REMARKS ON ASYMMETRIC PROCESSES
SO ANNALS OF MATHEMATICAL STATISTICS
LA English
DT Article
CR Besicovitch A. S., 1937, J LOND MATH SOC, V12, P18, DOI DOI 10.1112/JLMS/S1-12.45.18
   Blumenthal R. M., 1964, Z WAHRSCHEINLICHKEIT, V3, P50, DOI 10.1007/BF00531683
   Blumenthal R. M., 1962, ILLINOIS J MATH, V6, P308
   BLUMENTHAL RM, 1968, MARKOV PROCESES POTE
   BRETAGNOLLE J, 1971, 191 SPRING LECT NOT, P21
   FRISTEDT BE, 1967, PAC J MATH, V21, P21
   FRISTEDT BE, 1971, Z WAHRSCHEINLICHKEIT, V18, P167, DOI 10.1007/BF00563135
   HAWKES J, 1970, MATHEMATIKA, V17, P68
   KESTEN H, 1969, 93 AM MATH SOC MEM
   MILLAR PW, 1971, Z WAHRSCHEINLICHKEIT, V17, P53, DOI 10.1007/BF00538475
   OREY S, 1967, P MADISON C MARKOV P
   PORT SC, 1969, ANN MATH STAT, V40, P137, DOI 10.1214/aoms/1177697810
   PRUITT WE, 1969, J MATH MECH, V19, P371
   SHTATLAND ES, 1946, THEOR PROBABILITY AP, V10, P317
   Takeuchi J., 1964, Z WAHRSCHEINLICHKEIT, V3, P204, DOI 10.1007/BF00534909
   Taylor S.J., 1966, Z WAHRSCHEINLICHKEIT, V6, P170, DOI 10.1007/BF00537139
NR 16
TC 6
Z9 6
U1 0
U2 0
PU INST MATHEMATICAL STATISTICS
PI HAYWARD
PA IMS BUSINESS OFFICE-SUITE 7, 3401 INVESTMENT BLVD, HAYWARD, CA 94545
SN 0003-4851
J9 ANN MATH STAT
PY 1972
VL 43
IS 2
BP 597
EP &
DI 10.1214/aoms/1177692639
PG 0
WC Mathematics; Statistics & Probability
SC Mathematics
GA M3132
UT WOS:A1972M313200020
ER

PT J
AU DROGIN, R
AF DROGIN, R
TI INVARIANCE PRINCIPLE FOR MARTINGALES
SO ANNALS OF MATHEMATICAL STATISTICS
LA English
DT Article
CR Donsker M. D., 1951, MEM AM MATH SOC, V6, P1
   DUBINS LE, 1965, P NATL ACAD SCI USA, V53, P913, DOI 10.1073/pnas.53.5.913
   DVORETSKY A, 1970, 6 P BERKL S MATH STA
   FREEDMAN DA, 1970, MARKOV PROCESSES
   LEVY P, 1954, THEORIE ADDITION VAR, P280
   STRASSEN V, 1967, 5TH P BERK S MATH 1, V2, P315
NR 6
TC 9
Z9 9
U1 0
U2 0
PU INST MATHEMATICAL STATISTICS
PI HAYWARD
PA IMS BUSINESS OFFICE-SUITE 7, 3401 INVESTMENT BLVD, HAYWARD, CA 94545
SN 0003-4851
J9 ANN MATH STAT
PY 1972
VL 43
IS 2
BP 602
EP &
DI 10.1214/aoms/1177692640
PG 0
WC Mathematics; Statistics & Probability
SC Mathematics
GA M3132
UT WOS:A1972M313200021
ER

PT J
AU ISAAC, R
AF ISAAC, R
TI LIMIT THEOREMS FOR MARKOV TRANSITION FUNCTIONS
SO ANNALS OF MATHEMATICAL STATISTICS
LA English
DT Article
CR DOEBLIN W, 1940, ANN SCI ECOLE 57  S3, P61
   Doob J. L., 1953, STOCHASTIC PROCESSES
   Dunford N., 1958, LINEAR OPERATORS, V1
   ISAAC R, 1966, P AM MATH SOC, V17, P1308
   ISAAC R, 1968, DUKE MATH J, V35, P641, DOI 10.1215/S0012-7094-68-03566-7
   ISAAC R, TO BE PUBLISHED
   Jain N., 1966, Z WAHRSCHEINLICHKEIT, V6, P206, DOI 10.1007/BF00531804
   JAMISON B, 1967, Z WAHRSCHEINLICHKEIT, V8, P41, DOI 10.1007/BF00533943
   JERISON M, 1959, P AM MATH SOC, V10, P531, DOI 10.2307/2033647
   Munroe M. E., 1953, INTRO MEASURE INTEGR
   OREY S, 1968, LIMIT THEOREMS MARKO
NR 11
TC 2
Z9 2
U1 0
U2 0
PU INST MATHEMATICAL STATISTICS
PI HAYWARD
PA IMS BUSINESS OFFICE-SUITE 7, 3401 INVESTMENT BLVD, HAYWARD, CA 94545
SN 0003-4851
J9 ANN MATH STAT
PY 1972
VL 43
IS 2
BP 621
EP &
DI 10.1214/aoms/1177692641
PG 0
WC Mathematics; Statistics & Probability
SC Mathematics
GA M3132
UT WOS:A1972M313200022
ER

PT J
AU IGLEHART, DL
AF IGLEHART, DL
TI EXTREME VALUES IN GI-G-1 QUEUE
SO ANNALS OF MATHEMATICAL STATISTICS
LA English
DT Article
CR ANDERSON CW, 1970, J APPL PROBAB, V7, P99, DOI 10.2307/3212152
   BERMAN SM, 1962, ANN MATH STAT, V33, P894, DOI 10.1214/aoms/1177704458
   BILLINGSLEY P, 1968, CONVERGENCE PROBABIL
   Chung KL, 1968, COURSE PROBABILITY T
   COHEN JW, 1968, ANN I H POINCARE B, V4, P83
   Cohen J.W., 1969, SINGLE SERVER QUEUE
   Feller W., 1968, INTRO PROBABILITY TH, VI
   Gnedenko B, 1943, ANN MATH, V44, P423, DOI 10.2307/1968974
   HEYDE CC, 1971, OPER RES, V19, P447, DOI 10.1287/opre.19.2.447
   HOOKE JA, 1970, J APPL PROBAB, V7, P634, DOI 10.2307/3211942
   Iglehart D. L., 1971, Advances in Applied Probability, V3, P269, DOI 10.2307/1426171
   IGLEHART DL, 1970, ADV APPL PROBAB, V2, P150, DOI 10.2307/3518347
   LAMPERTI J, 1964, ANN MATH STAT, V35, P1726, DOI 10.1214/aoms/1177700395
   REICH E, 1958, ANN MATH STAT, V29, P563, DOI 10.1214/aoms/1177706632
   Spitzer F, 1964, PRINCIPLES RANDOM WA
   WHITT W, TO BE PUBLISHED
NR 16
TC 108
Z9 109
U1 1
U2 2
PU INST MATHEMATICAL STATISTICS
PI CLEVELAND
PA 3163 SOMERSET DR, CLEVELAND, OH 44122 USA
SN 0003-4851
J9 ANN MATH STAT
JI Ann. Math. Stat.
PY 1972
VL 43
IS 2
BP 627
EP +
DI 10.1214/aoms/1177692642
PG 1
WC Mathematics; Statistics & Probability
SC Mathematics
GA M3132
UT WOS:A1972M313200023
ER

PT J
AU HARRISON, JM
AF HARRISON, JM
TI DISCRETE DYNAMIC PROGRAMMING WITH UNBOUNDED REWARDS
SO ANNALS OF MATHEMATICAL STATISTICS
LA English
DT Article
CR Bellman R., 1957, DYNAMIC PROGRAMMING
   BLACKWELL D, 1962, ANN MATH STAT, V33, P719, DOI 10.1214/aoms/1177704593
   Blackwell D, 1965, ANN MATH STAT, V36, P226, DOI DOI 10.1214/AOMS/1177700285
   HARRISON JM, 1970, 128 STANF U DEP OP R
   Howard R. A., 1960, DYNAMIC PROGRAMMING
   Liusternik L.A., 1961, ELEMENTS FUNCTIONAL
   Maitra A., 1965, SANKHYA A, V27, P241
NR 7
TC 19
Z9 19
U1 0
U2 1
PU INST MATHEMATICAL STATISTICS
PI HAYWARD
PA IMS BUSINESS OFFICE-SUITE 7, 3401 INVESTMENT BLVD, HAYWARD, CA 94545
SN 0003-4851
J9 ANN MATH STAT
PY 1972
VL 43
IS 2
BP 636
EP &
DI 10.1214/aoms/1177692643
PG 0
WC Mathematics; Statistics & Probability
SC Mathematics
GA M3132
UT WOS:A1972M313200024
ER

PT J
AU MARSAGLIA, G
AF MARSAGLIA, G
TI CHOOSING A POINT FROM SURFACE OF A SPHERE
SO ANNALS OF MATHEMATICAL STATISTICS
LA English
DT Note
CR Cook JM, 1957, MATH TABLES AIDS COM, V11, P81, DOI DOI 10.1090/S0025-5718-1957-0690630-7
   FELLER W., 1966, INTRO PROBABILITY TH, VII
   MULLER ME, 1959, COMMUN ACM, V2, P19, DOI 10.1145/377939.377946
   STEPHENS MA, 1964, J AM STAT ASSOC, V59, P160, DOI 10.2307/2282867
   WATSON GS, 1956, BIOMETRIKA, V43, P344, DOI 10.2307/2332913
NR 5
TC 246
Z9 247
U1 1
U2 18
PU INST MATHEMATICAL STATISTICS
PI CLEVELAND
PA 3163 SOMERSET DR, CLEVELAND, OH 44122 USA
SN 0003-4851
J9 ANN MATH STAT
JI Ann. Math. Stat.
PY 1972
VL 43
IS 2
BP 645
EP +
DI 10.1214/aoms/1177692644
PG 1
WC Mathematics; Statistics & Probability
SC Mathematics
GA M3132
UT WOS:A1972M313200025
ER

PT J
AU BERK, RH
AF BERK, RH
TI NOTE ON SUFFICIENCY AND INVARIANCE
SO ANNALS OF MATHEMATICAL STATISTICS
LA English
DT Note
CR Basu D, 1955, SANKHYA, V15, P377
   BERK RH, 1968, ANN MATH STAT, V39, P1573
   BERK RH, 1967, ANN MATH STAT, V38, P1436, DOI 10.1214/aoms/1177698698
   FRASER DAS, 1966, SANKHYA SER A, V28, P145
   HALL WJ, 1965, ANN MATH STAT, V36, P575, DOI 10.1214/aoms/1177700169
   LEHMANN EL, 1959, TESTING STATISTICAL
   PFANZAGL J, UNPUBLISHED
NR 7
TC 10
Z9 10
U1 0
U2 0
PU INST MATHEMATICAL STATISTICS
PI HAYWARD
PA IMS BUSINESS OFFICE-SUITE 7, 3401 INVESTMENT BLVD, HAYWARD, CA 94545
SN 0003-4851
J9 ANN MATH STAT
PY 1972
VL 43
IS 2
BP 647
EP &
DI 10.1214/aoms/1177692645
PG 0
WC Mathematics; Statistics & Probability
SC Mathematics
GA M3132
UT WOS:A1972M313200026
ER

PT J
AU ESARY, JD
   PROSCHAN, F
AF ESARY, JD
   PROSCHAN, F
TI RELATIONSHIPS AMONG SOME CONCEPTS OF BIVARIATE DEPENDENCE
SO ANNALS OF MATHEMATICAL STATISTICS
LA English
DT Note
CR ESARY JD, 1970, J AM STAT ASSOC, V65, P329, DOI 10.2307/2283596
   ESARY JD, 1967, ANN MATH STAT, V38, P1466, DOI 10.1214/aoms/1177698701
   HARRIS R, 1970, ANN MATH STAT, V41, P713, DOI 10.1214/aoms/1177697121
   JOGDEO K, 1968, ANN MATH STAT, V39, P433, DOI 10.1214/aoms/1177698407
   LEHMANN EL, 1966, ANN MATH STAT, V37, P1137, DOI 10.1214/aoms/1177699260
   TUKEY JW, 1958, ANN MATH STAT, V29, P588, DOI 10.1214/aoms/1177706637
NR 6
TC 59
Z9 59
U1 0
U2 1
PU INST MATHEMATICAL STATISTICS
PI HAYWARD
PA IMS BUSINESS OFFICE-SUITE 7, 3401 INVESTMENT BLVD, HAYWARD, CA 94545
SN 0003-4851
J9 ANN MATH STAT
PY 1972
VL 43
IS 2
BP 651
EP &
DI 10.1214/aoms/1177692646
PG 0
WC Mathematics; Statistics & Probability
SC Mathematics
GA M3132
UT WOS:A1972M313200027
ER

PT J
AU CAUSEY, BD
AF CAUSEY, BD
TI SENSITIVITY OF RAKED CONTINGENCY TABLE TOTALS TO CHANGES IN PROBLEM
   CONDITIONS
SO ANNALS OF MATHEMATICAL STATISTICS
LA English
DT Note
CR HILDEBRAND FB, 1961, METHODS APPLIED MATH
   IRELAND CT, 1968, BIOMETRIKA, V55, P179
NR 2
TC 3
Z9 3
U1 0
U2 0
PU INST MATHEMATICAL STATISTICS
PI HAYWARD
PA IMS BUSINESS OFFICE-SUITE 7, 3401 INVESTMENT BLVD, HAYWARD, CA 94545
SN 0003-4851
J9 ANN MATH STAT
PY 1972
VL 43
IS 2
BP 656
EP &
DI 10.1214/aoms/1177692647
PG 0
WC Mathematics; Statistics & Probability
SC Mathematics
GA M3132
UT WOS:A1972M313200028
ER

PT J
AU LAMOTTE, LR
AF LAMOTTE, LR
TI NOTES ON COVARIANCE MATRIX OF A RANDOM, NESTED ANOVA MODEL
SO ANNALS OF MATHEMATICAL STATISTICS
LA English
DT Note
NR 0
TC 13
Z9 14
U1 1
U2 1
PU INST MATHEMATICAL STATISTICS
PI HAYWARD
PA IMS BUSINESS OFFICE-SUITE 7, 3401 INVESTMENT BLVD, HAYWARD, CA 94545
SN 0003-4851
J9 ANN MATH STAT
PY 1972
VL 43
IS 2
BP 659
EP &
DI 10.1214/aoms/1177692648
PG 0
WC Mathematics; Statistics & Probability
SC Mathematics
GA M3132
UT WOS:A1972M313200029
ER

PT J
AU FABIAN, V
AF FABIAN, V
TI NOTE ON A KOLMOGOROV-TYPE INEQUALITY
SO ANNALS OF MATHEMATICAL STATISTICS
LA English
DT Note
CR KOUNIAS EG, 1969, ANN MATH STAT, V40, P1091, DOI 10.1214/aoms/1177697615
   Loeve M., 1955, PROBABILITY THEORY
NR 2
TC 0
Z9 0
U1 0
U2 0
PU INST MATHEMATICAL STATISTICS
PI HAYWARD
PA IMS BUSINESS OFFICE-SUITE 7, 3401 INVESTMENT BLVD, HAYWARD, CA 94545
SN 0003-4851
J9 ANN MATH STAT
PY 1972
VL 43
IS 2
BP 663
EP &
DI 10.1214/aoms/1177692649
PG 0
WC Mathematics; Statistics & Probability
SC Mathematics
GA M3132
UT WOS:A1972M313200030
ER

PT J
AU STANLEY, RM
AF STANLEY, RM
TI BOUNDARY CROSSING PROBABILITIES FOR KOLMOGOROV-SMIRNOV STATISTICS
SO ANNALS OF MATHEMATICAL STATISTICS
LA English
DT Note
CR CASKI E, 1968, STUDIA SCI MATH HUNG, V3, P287
   CHUNG KL, 1949, T AM MATH SOC, V67, P36
   DARLING DA, 1968, P NATL ACAD SCI USA, V61, P804, DOI 10.1073/pnas.61.3.804
   Doob J. L., 1953, STOCHASTIC PROCESSES
   Feller W, 1943, T AM MATH SOC, V54, P373, DOI 10.2307/1990253
NR 5
TC 0
Z9 0
U1 0
U2 0
PU INST MATHEMATICAL STATISTICS
PI HAYWARD
PA IMS BUSINESS OFFICE-SUITE 7, 3401 INVESTMENT BLVD, HAYWARD, CA 94545
SN 0003-4851
J9 ANN MATH STAT
PY 1972
VL 43
IS 2
BP 664
EP &
DI 10.1214/aoms/1177692650
PG 0
WC Mathematics; Statistics & Probability
SC Mathematics
GA M3132
UT WOS:A1972M313200031
ER

PT J
AU FRISTEDT, B
AF FRISTEDT, B
TI EXPANSIONS FOR DENSITY OF ABSOLUTE VALUE OF A STRICTLY STABLE VECTOR
SO ANNALS OF MATHEMATICAL STATISTICS
LA English
DT Note
CR Gradshteyn I. S., 1965, TABLES INTEGRALS SER
   Levy P, 1937, THEORIE ADDITION VAR
   PRUITT WE, 1969, T AM MATH SOC, V146, P299, DOI 10.2307/1995174
   Skorohod A.V., 1954, DOKL AKAD NAUK SSSR, V98, P731
   SKOROKHOD AV, 1967, SELECTED TRANSL MATH, V1, P157
   TAYLOR SJ, 1967, J MATH MECH, V16, P1229
NR 6
TC 7
Z9 7
U1 0
U2 0
PU INST MATHEMATICAL STATISTICS
PI HAYWARD
PA IMS BUSINESS OFFICE-SUITE 7, 3401 INVESTMENT BLVD, HAYWARD, CA 94545
SN 0003-4851
J9 ANN MATH STAT
PY 1972
VL 43
IS 2
BP 669
EP &
DI 10.1214/aoms/1177692651
PG 0
WC Mathematics; Statistics & Probability
SC Mathematics
GA M3132
UT WOS:A1972M313200032
ER

PT J
AU POLLAK, M
AF POLLAK, M
TI NOTE ON INFINITELY DIVISIBLE RANDOM VECTORS
SO ANNALS OF MATHEMATICAL STATISTICS
LA English
DT Note
CR FELLER W., 1966, INTRO PROBABILITY TH, VII
NR 1
TC 0
Z9 0
U1 0
U2 0
PU INST MATHEMATICAL STATISTICS
PI HAYWARD
PA IMS BUSINESS OFFICE-SUITE 7, 3401 INVESTMENT BLVD, HAYWARD, CA 94545
SN 0003-4851
J9 ANN MATH STAT
PY 1972
VL 43
IS 2
BP 673
EP &
DI 10.1214/aoms/1177692652
PG 0
WC Mathematics; Statistics & Probability
SC Mathematics
GA M3132
UT WOS:A1972M313200033
ER

PT J
AU TEUGELS, JL
AF TEUGELS, JL
TI NOTE ON POISSON SUBORDINATION
SO ANNALS OF MATHEMATICAL STATISTICS
LA English
DT Note
CR BAXTER G, 1957, T AM MATH SOC, V85, P73, DOI 10.2307/1992962
   BOCHNER S, 1955, HARMONIC ANALYSIS TH
   COHEN JW, 1962, NEDERL AKAD WETENS A, V65, P55
   FELLER W., 1966, INTRO PROBABILITY TH, VII
   FELLER W., 1957, INTRO PROBABILITY TH, VI
   Kingman J. F. C., 1963, P LOND MATH SOC, V13, P337
   Prabhu N.U., 1965, STOCHASTIC PROCESSES
   Spitzer F, 1964, PRINCIPLES RANDOM WA
   STAM AJ, 1965, COMPOS MATH, V17, P102
   Tacklind S, 1942, SKAND AKTUARIETIDSKR, V25, P1
   TEUGELS JL, 1968, J APPL PROBAB, V5, P669, DOI 10.2307/3211929
NR 11
TC 0
Z9 0
U1 0
U2 0
PU INST MATHEMATICAL STATISTICS
PI HAYWARD
PA IMS BUSINESS OFFICE-SUITE 7, 3401 INVESTMENT BLVD, HAYWARD, CA 94545
SN 0003-4851
J9 ANN MATH STAT
PY 1972
VL 43
IS 2
BP 676
EP &
DI 10.1214/aoms/1177692653
PG 0
WC Mathematics; Statistics & Probability
SC Mathematics
GA M3132
UT WOS:A1972M313200034
ER

PT J
AU ROOT, DH
AF ROOT, DH
TI DOMAINS OF ATTRACTION OF FIRST PASSAGE TIMES
SO ANNALS OF MATHEMATICAL STATISTICS
LA English
DT Note
CR Billingsley P., 1968, CONVERGENCE PROBABIL
   Chung KL, 1968, COURSE PROBABILITY T
   FELLER W., 1966, INTRO PROBABILITY TH, VII
NR 3
TC 0
Z9 0
U1 0
U2 0
PU INST MATHEMATICAL STATISTICS
PI HAYWARD
PA IMS BUSINESS OFFICE-SUITE 7, 3401 INVESTMENT BLVD, HAYWARD, CA 94545
SN 0003-4851
J9 ANN MATH STAT
PY 1972
VL 43
IS 2
BP 681
EP &
DI 10.1214/aoms/1177692654
PG 0
WC Mathematics; Statistics & Probability
SC Mathematics
GA M3132
UT WOS:A1972M313200035
ER

PT J
AU EISENBER.B
AF EISENBER.B
TI NOTE ON METRIC TRANSITIVITY FOR STATIONARY GAUSSIAN PROCESSES ON GROUPS
SO ANNALS OF MATHEMATICAL STATISTICS
LA English
DT Note
CR BLANCLAPIERRE, 1968, THEORY RANDOM FUNCTI, V2
   Blum J., 1960, PAC J MATH, V10, P1125
   FELDMAN J, 1958, PACIFIC J MATH, V8
   FELDMAN J, 1960, PAC J MATH, V10, P1211
   FELDMAN J, 1966, LECTURE NOTES U CALI
   Grenander U., 1950, Arkiv for Matematik, V1, P195, DOI 10.1007/BF02590638
   Maruyama G., 1949, MEM FS KYUSHU U, V4, P45
   Segal I. E., 1958, T AM MATH SOC, V88, DOI 10.2307/1993234
   Wiener N, 1939, DUKE MATH J, V5, P1, DOI 10.1215/S0012-7094-39-00501-6
NR 9
TC 0
Z9 0
U1 0
U2 0
PU INST MATHEMATICAL STATISTICS
PI HAYWARD
PA IMS BUSINESS OFFICE-SUITE 7, 3401 INVESTMENT BLVD, HAYWARD, CA 94545
SN 0003-4851
J9 ANN MATH STAT
PY 1972
VL 43
IS 2
BP 683
EP &
DI 10.1214/aoms/1177692655
PG 0
WC Mathematics; Statistics & Probability
SC Mathematics
GA M3132
UT WOS:A1972M313200036
ER

PT J
AU ISAACSON, D
AF ISAACSON, D
TI UNIFORM INTEGRABILITY OF SQUARE INTEGRABLE MARTINGALES
SO ANNALS OF MATHEMATICAL STATISTICS
LA English
DT Note
CR DAVIS B, 1970, ISRAEL J MATH, V8, P187, DOI 10.1007/BF02771313
   KUNITA H, 1967, NAGOYA MATH J, V30, P209
   MEYER PA, 1967, SEMINAIRE PROBABILIT, V1
NR 3
TC 0
Z9 0
U1 0
U2 0
PU INST MATHEMATICAL STATISTICS
PI HAYWARD
PA IMS BUSINESS OFFICE-SUITE 7, 3401 INVESTMENT BLVD, HAYWARD, CA 94545
SN 0003-4851
J9 ANN MATH STAT
PY 1972
VL 43
IS 2
BP 688
EP &
DI 10.1214/aoms/1177692656
PG 0
WC Mathematics; Statistics & Probability
SC Mathematics
GA M3132
UT WOS:A1972M313200037
ER

PT J
AU HENDRICKS, WJ
AF HENDRICKS, WJ
TI HAUSDORFF DIMENSION IN A PROCESS WITH STABLE COMPONENTS - INTERESTING
   COUNTEREXAMPLE
SO ANNALS OF MATHEMATICAL STATISTICS
LA English
DT Note
CR BLUMENTHAL RM, 1961, J MATH MECH, V10, P493
   Blumenthal R. M., 1960, ILLINOIS J MATH, V4, P370
   Davies R.O., 1952, INDAG MATH, V14, P488
   FROSTMAN O, 1935, MEDD LUNDS U MAT SEM, V3
   HAWKES J, 1971, INDIANA U MATH J, V20, P733, DOI 10.1512/iumj.1971.20.20058
   HENDRICK.WJ, 1970, Z WAHRSCHEINLICHKEIT, V16, P261, DOI 10.1007/BF00535132
   Levy P, 1937, THEORIE ADDITION VAR
   MCKEAN HP, 1955, ANN MATH, V61, P564, DOI 10.2307/1969814
   MILLAR PW, 1971, Z WAHRSCHEINLICHKEIT, V17, P53, DOI 10.1007/BF00538475
   PRUITT WE, 1969, Z WAHRSCHEINLICHKEIT, V12, P267, DOI 10.1007/BF00538749
   PRUITT WE, 1969, J MATH MECH, V19, P371
NR 11
TC 9
Z9 9
U1 0
U2 0
PU INST MATHEMATICAL STATISTICS
PI CLEVELAND
PA 3163 SOMERSET DR, CLEVELAND, OH 44122 USA
SN 0003-4851
J9 ANN MATH STAT
JI Ann. Math. Stat.
PY 1972
VL 43
IS 2
BP 690
EP +
DI 10.1214/aoms/1177692657
PG 1
WC Mathematics; Statistics & Probability
SC Mathematics
GA M3132
UT WOS:A1972M313200038
ER

PT J
AU STROUD, TWF
AF STROUD, TWF
TI CORRECTION
SO ANNALS OF MATHEMATICAL STATISTICS
LA English
DT Correction, Addition
CR STROUD TWF, 1971, ANN MATH STAT, V42, P1412, DOI 10.1214/aoms/1177693252
NR 1
TC 0
Z9 0
U1 0
U2 1
PU INST MATHEMATICAL STATISTICS
PI HAYWARD
PA IMS BUSINESS OFFICE-SUITE 7, 3401 INVESTMENT BLVD, HAYWARD, CA 94545
SN 0003-4851
J9 ANN MATH STAT
PY 1972
VL 43
IS 2
BP 695
EP &
DI 10.1214/aoms/1177692658
PG 0
WC Mathematics; Statistics & Probability
SC Mathematics
GA M3132
UT WOS:A1972M313200039
ER

PT J
AU MASON, JD
AF MASON, JD
TI ADDITION
SO ANNALS OF MATHEMATICAL STATISTICS
LA English
DT Correction, Addition
CR MASON JD, 1971, ANN MATH STAT, V42, P784, DOI 10.1214/aoms/1177693432
NR 1
TC 0
Z9 0
U1 0
U2 0
PU INST MATHEMATICAL STATISTICS
PI HAYWARD
PA IMS BUSINESS OFFICE-SUITE 7, 3401 INVESTMENT BLVD, HAYWARD, CA 94545
SN 0003-4851
J9 ANN MATH STAT
PY 1972
VL 43
IS 2
BP 696
EP &
DI 10.1214/aoms/1177692659
PG 0
WC Mathematics; Statistics & Probability
SC Mathematics
GA M3132
UT WOS:A1972M313200040
ER

PT J
AU GUPTA, SS
AF GUPTA, SS
TI SEQUENTIAL IDENTIFICATION AND RANKING PROCEDURES - BECHHOFER,RE,
   KIEFER,J AND SOBEL,M
SO ANNALS OF MATHEMATICAL STATISTICS
LA English
DT Book Review
C1 PURDUE UNIV,LAFAYETTE,IN 47907.
CR Bechhofer Robert, 1968, SEQUENTIAL IDENTIFIC
NR 1
TC 0
Z9 0
U1 0
U2 0
PU INST MATHEMATICAL STATISTICS
PI HAYWARD
PA IMS BUSINESS OFFICE-SUITE 7, 3401 INVESTMENT BLVD, HAYWARD, CA 94545
SN 0003-4851
J9 ANN MATH STAT
PY 1972
VL 43
IS 2
BP 697
EP 700
DI 10.1214/aoms/1177692660
PG 4
WC Mathematics; Statistics & Probability
SC Mathematics
GA M3132
UT WOS:A1972M313200041
ER

PT J
AU KESTEN, H
AF KESTEN, H
TI SUMS OF INDEPENDENT RANDOM VARIABLES WITHOUT MOMENT CONDITIONS
SO ANNALS OF MATHEMATICAL STATISTICS
LA English
DT Article
CR BINMORE KG, 1968, B AM MATH SOC, V74, P941, DOI 10.1090/S0002-9904-1968-12098-1
   Breiman L., 1968, PROBABILITY
   BRETAGNOLLE J, 1967, ANN I H POINCARE B, V3, P403
   CHUNG KL, 1954, T AM MATH SOC, V76, P397, DOI 10.2307/1990789
   CHUNG KL, 1960, MARKOV CHAINES STATI
   CHUNG KL, 1951, 6 AM MATH SOC MEM
   DOEBLIN W, 1939, B SCI MATH, V63, P23
   DOEBLIN W, 1939, B SCI MATH, V63, P35
   Doeblin W., 1936, CR HEBD ACAD SCI, V202, P2027
   Doeblin W., 1938, B SOC MATH FRANCE, V66, P210
   Doob J. L., 1953, STOCHASTIC PROCESSES
   DOOB JL, 1960, CONTRIBUTIONS PROBAB, P182
   ESSEEN CG, 1968, Z WAHRSCHEINLICHKEIT, V9, P290, DOI 10.1007/BF00531753
   Esseen C. G., 1966, Z WAHRSCHEINLICHKEIT, V5, P210, DOI 10.1007/BF00533057
   FELLER W, 1968, J MATH MECH, V18, P343
   Feller W., 1968, INTRO PROBABILITY TH, VI
   FELLER W., 1966, INTRO PROBABILITY TH, VII
   FRISTEDT B, 1970, 1110 U WISC MATH RES
   HARRIS TE, 1953, P NATL ACAD SCI USA, V39, P860, DOI 10.1073/pnas.39.8.860
   Hartman P, 1941, AM J MATH, V63, P169, DOI 10.2307/2371287
   HERMANN H, 1965, WISS Z FRIEDRICH  MN, V14, P221
   HERZ CS, 1965, ANN I FOURIER GRENOB, V15, P169
   HEYDE CC, 1969, P AM MATH SOC, V23, P85
   HOEFFDING W, 1961, 4 BERK S STAT PROB, V2, P213
   KATZ ML, 1963, ANN MATH STAT, V34, P312, DOI 10.1214/aoms/1177704268
   KEMENY JG, 1961, ANN MATH STAT, V32, P709, DOI 10.1214/aoms/1177704966
   KEMENY JG, 1959, P AM MATH SOC, V10, P607
   KEMENY JG, 1961, J MATH ANAL APPL, V3, P196, DOI 10.1016/0022-247X(61)90054-3
   KERSTAN J, 1965, WISS Z U JENA, V14, P457
   KESTEN H, 1970, ANN MATH STAT, V41, P1173, DOI 10.1214/aoms/1177696894
   KESTEN H, 1969, MATH SCAND, V25, P133
   KESTEN H, 1970, J ANAL MATH, V23, P199, DOI 10.1007/BF02795500
   KESTEN H, 1967, 5TH P BERK S MATH ST, V2, P51
   Kesten Harry, 1963, J ANAL MATH, V11, P323, DOI 10.1007/BF02789990
   Kesten H., 1963, J ANAL MATH, V11, P285, DOI 10.1007/BF02789989
   KINGMAN JFC, 1964, P AM MATH SOC, V15, P907, DOI 10.2307/2034907
   KNOPP K, 1951, THEORY APPLICATION I
   Kolmogoroff A, 1930, MATH ANN, V102, P484, DOI 10.1007/BF01782357
   Kolmogoroff A, 1928, MATH ANN, V99, P309, DOI 10.1007/BF01459098
   Kolmogorov A., 1958, ANN I H POINCARE, V16, P27
   LeCam L, 1965, BERNOULLI BAYES LAPL, P179
   LEVY P., 1954, THEORIE ADDITION VAR
   NEVEU J, 1963, CR HEBD ACAD SCI, V257, P2953
   OREY S, 1961, B AM MATH SOC, V67, P571, DOI 10.1090/S0002-9904-1961-10694-0
   OREY S, 1962, Z WAHRSCHEINLICHKEIT, V1, P174, DOI 10.1007/BF01844420
   ORNSTEIN D, 1967, 5 P BERK S MATH STAT, V2, P213
   ORNSTEIN DS, 1969, T AM MATH SOC, V138, P1, DOI 10.2307/1994896
   ORNSTEIN DS, 1969, T AM MATH SOC, V138, P45, DOI 10.2307/1994897
   PORT SC, 1967, J MATH MECH, V17, P35
   ROBBINS H, 1953, P AM MATH SOC, V4, P786, DOI 10.2307/2032412
   ROGOZIN BA, 1968, THEOR PROBAB APPL+, V13, P667, DOI 10.1137/1113081
   Rogozin B. A., 1961, TEOR VEROYA PRIMEN, V6, P106
   Rogozin B. A., 1961, THEOR PROBAB APPL, V6, P94, DOI 10.1137/1106009
   ROGOZIN BA, 1961, TEOR VER PRIM, V6, P103
   ROGOZIN BA, 1968, TEOR VEROYA PRIMEN, V13, P701
   ROGOZIN B. A., 1961, THEOR PROBAB APPL, V6, P97, DOI 10.1137/1106010
   SAZONOV VV, 1966, THEOR PROBAB APPL+, V11, P603, DOI 10.1137/1111065
   SAZONOV VV, 1966, TEOR VEROYA PRIMEN, V11, P683
   SPITZER F, 1962, J MATH MECH, V11, P593
   Spitzer F, 1964, PRINCIPLES RANDOM WA
   STONE C, 1967, 5TH P BERK S MATH ST, V2, P217
   STONE CJ, 1969, T AM MATH SOC, V136, P413, DOI 10.2307/1994724
   STONE CJ, 1969, ANN MATH STAT, V40, P2203, DOI 10.1214/aoms/1177697300
   STONE CJ, 1966, T AM MATH SOC, V125, P186
   Strassen V., 1966, Z WAHRSCH VERW GEBIE, V4, P265, DOI 10.1007/BF00539114
   Strassen V., 1964, Z WAHRSCHEINLICHKEIT, V3, P211, DOI 10.1007/BF00534910
   TOMKINS RJ, 1971, T AM MATH SOC, V156, P185, DOI 10.2307/1995607
NR 67
TC 66
Z9 67
U1 0
U2 0
PU INST MATHEMATICAL STATISTICS
PI HAYWARD
PA IMS BUSINESS OFFICE-SUITE 7, 3401 INVESTMENT BLVD, HAYWARD, CA 94545
SN 0003-4851
J9 ANN MATH STAT
PY 1972
VL 43
IS 3
BP 701
EP &
DI 10.1214/aoms/1177692541
PG 0
WC Mathematics; Statistics & Probability
SC Mathematics
GA M8459
UT WOS:A1972M845900001
ER

PT J
AU TAYLOR, HM
AF TAYLOR, HM
TI BOUNDS FOR STOPPED PARTIAL SUMS
SO ANNALS OF MATHEMATICAL STATISTICS
LA English
DT Article
CR BLACKWELL D, 1954, ANN MATH STAT, V25, P394, DOI 10.1214/aoms/1177728798
   BLACKWELL D, 1967, 5TH P BERK S MATH ST, V1, P415
   Blackwell D, 1965, ANN MATH STAT, V36, P226, DOI DOI 10.1214/AOMS/1177700285
   Blackwell D., 1964, P S APPL MATH, V16, P277
   Doob J. L., 1953, STOCHASTIC PROCESSES
   DUBINS LE, 1967, ANN MATH STAT, V38, P601, DOI 10.1214/aoms/1177698978
   DUBINS LE, 1965, ANN MATH STAT, V36, P800, DOI 10.1214/aoms/1177700054
   DUBINS LE, 1965, HOW GAMBLE IF YOU MU
   DYNKIN EB, 1963, DOKL AKAD NAUK SSSR+, V150, P238
   Dynkin E. B., 1963, SOV MATH, V4, P627
   FELLER W., 1966, INTRO PROBABILITY TH, VII
   KIEFER J, 1956, ANN MATH STAT, V27, P147, DOI 10.1214/aoms/1177728354
   KINGMAN JFC, 1962, BIOMETRIKA, V49, P315, DOI 10.2307/2333966
   MANDELBROT B, 1963, J BUS, V36, P394, DOI 10.1086/294632
   SAMUEL E, 1967, J APPL PROBAB, V4, P197, DOI 10.2307/3212312
   SAMUELSON PA, 1965, IMR-IND MANAG REV, V6, P13
   SHEPP LA, 1969, ANN MATH STAT, V40, P993, DOI 10.1214/aoms/1177697604
   TAYLOR HM, 1968, ANN MATH STAT, V39, P1333, DOI 10.1214/aoms/1177698259
   TAYLOR HM, 1968, ANN MATH STAT, V39, P706
   TAYLOR HM, 1967, MANAGE SCI, V14, P111, DOI 10.1287/mnsc.14.1.111
   WALD A, 1947, SEQUENTIAL ANALYSIS
   WALKER LH, 1969, B AM MATH SOC, V75, P46, DOI 10.1090/S0002-9904-1969-12140-3
NR 22
TC 5
Z9 5
U1 0
U2 0
PU INST MATHEMATICAL STATISTICS
PI HAYWARD
PA IMS BUSINESS OFFICE-SUITE 7, 3401 INVESTMENT BLVD, HAYWARD, CA 94545
SN 0003-4851
J9 ANN MATH STAT
PY 1972
VL 43
IS 3
BP 733
EP &
DI 10.1214/aoms/1177692542
PG 0
WC Mathematics; Statistics & Probability
SC Mathematics
GA M8459
UT WOS:A1972M845900002
ER

PT J
AU ROSEN, B
AF ROSEN, B
TI ASYMPTOTIC THEORY FOR SUCCESSIVE SAMPLING WITH VARYING PROBABILITIES
   WITHOUT REPLACEMENT .2.
SO ANNALS OF MATHEMATICAL STATISTICS
LA English
DT Article
CR HAJEK J, 1964, ANN MATH STAT, V35, P1491, DOI 10.1214/aoms/1177700375
   Hajek J., 1960, PUBL MATH I HUNG, V5, P361
   Karlin S., 1968, TOTAL POSITIVITY
   ROSEN B, 1969, Z WAHRSCHEINLICHKEIT, V13, P256, DOI 10.1007/BF00539204
   ROSEN B, 1969, Z WAHRSCHEINLICHKEIT, V13, P221, DOI 10.1007/BF00539203
   ROSEN B, 1970, ANN MATH STAT, V41, P1952, DOI 10.1214/aoms/1177696696
   ROSEN B, 1971, ANN MATH ST, V43, P401
   Sukhatme P. V., 1970, SAMPLING THEORY SURV
NR 8
TC 29
Z9 29
U1 0
U2 0
PU INST MATHEMATICAL STATISTICS
PI HAYWARD
PA IMS BUSINESS OFFICE-SUITE 7, 3401 INVESTMENT BLVD, HAYWARD, CA 94545
SN 0003-4851
J9 ANN MATH STAT
PY 1972
VL 43
IS 3
BP 748
EP &
DI 10.1214/aoms/1177692543
PG 0
WC Mathematics; Statistics & Probability
SC Mathematics
GA M8459
UT WOS:A1972M845900003
ER

PT J
AU FRASER, DAS
AF FRASER, DAS
TI BAYES, LIKELIHOOD, OR STRUCTURAL
SO ANNALS OF MATHEMATICAL STATISTICS
LA English
DT Article
CR BOX GEP, 1964, J ROY STAT SOC B, V26, P211
   FRASER DAS, 1972, ANN MATH STAT, V43, P898, DOI 10.1214/aoms/1177692554
   Fraser D.A.S., 1968, STRUCTURE INFERENCE
   FREUND JE, 1965, AM STATISTICAN, V20, P44
   FREUND JE, 1965, AM STATISTICAN, V20, P4
   JEFFREYS H., 1961, THEORY PROBABILITY
   STONE M, 1965, ANN MATH STAT, V36, P440, DOI 10.1214/aoms/1177700154
NR 7
TC 8
Z9 8
U1 0
U2 0
PU INST MATHEMATICAL STATISTICS
PI HAYWARD
PA IMS BUSINESS OFFICE-SUITE 7, 3401 INVESTMENT BLVD, HAYWARD, CA 94545
SN 0003-4851
J9 ANN MATH STAT
PY 1972
VL 43
IS 3
BP 777
EP &
DI 10.1214/aoms/1177692544
PG 0
WC Mathematics; Statistics & Probability
SC Mathematics
GA M8459
UT WOS:A1972M845900004
ER

PT J
AU VANEEDEN, C
AF VANEEDEN, C
TI ANALOG FOR SIGNED RANK STATISTICS, OF JURECKOVAS ASYMPTOTIC LINEARITY
   THEOREM FOR RANK STATISTICS
SO ANNALS OF MATHEMATICAL STATISTICS
LA English
DT Article
CR Hajek J, 1967, THEORY RANK TESTS
   JUKECKOVA J, 1969, ANN MATH ST, V40, P1889
   JUKECKOVA J, 1971, SANKHYA            A, V33, P1
   JUKECKOVA J, 1971, ANN MATH ST, V42, P1328
   KOUL HL, 1969, ANN MATH STAT, V40, P1950, DOI 10.1214/aoms/1177697278
   KRAFT CH, 1972, ANN MATH STAT, V43, P42, DOI 10.1214/aoms/1177692699
   KRAFT CH, TO BE PUBLISHED
   KRAFT CH, 1969, 4 INT S NONP TECHN S
   LEHMANN EL, 1966, ANN MATH STAT, V37, P1137, DOI 10.1214/aoms/1177699260
NR 9
TC 27
Z9 27
U1 0
U2 0
PU INST MATHEMATICAL STATISTICS
PI HAYWARD
PA IMS BUSINESS OFFICE-SUITE 7, 3401 INVESTMENT BLVD, HAYWARD, CA 94545
SN 0003-4851
J9 ANN MATH STAT
PY 1972
VL 43
IS 3
BP 791
EP &
DI 10.1214/aoms/1177692545
PG 0
WC Mathematics; Statistics & Probability
SC Mathematics
GA M8459
UT WOS:A1972M845900005
ER

PT J
AU MCCABE, GP
AF MCCABE, GP
TI SEQUENTIAL ESTIMATION OF A POISSON INTEGER MEAN
SO ANNALS OF MATHEMATICAL STATISTICS
LA English
DT Article
CR BLACKWELL D, 1959, ANN MATH STAT, V30, P1113, DOI 10.1214/aoms/1177706094
   HAMMERSLEY JM, 1950, J ROY STAT SOC B, V12, P192
   Loeve M., 1963, PROBABILITY THEORY
   ROBBINS H, 1970, SCIENTISTS WORK FEST
NR 4
TC 5
Z9 5
U1 0
U2 0
PU INST MATHEMATICAL STATISTICS
PI HAYWARD
PA IMS BUSINESS OFFICE-SUITE 7, 3401 INVESTMENT BLVD, HAYWARD, CA 94545
SN 0003-4851
J9 ANN MATH STAT
PY 1972
VL 43
IS 3
BP 803
EP &
DI 10.1214/aoms/1177692546
PG 0
WC Mathematics; Statistics & Probability
SC Mathematics
GA M8459
UT WOS:A1972M845900006
ER

PT J
AU GUPTA, SS
   PANCHAPA.S
AF GUPTA, SS
   PANCHAPA.S
TI CLASS OF SUBSET SELECTION PROCEDURES
SO ANNALS OF MATHEMATICAL STATISTICS
LA English
DT Article
CR ALAM K, 1966, ANN I STAT MATH, V18, P307, DOI 10.1007/BF02869538
   GUPTA SS, 1970, ESSAYS PROBABILITY S
   GUPTA SS, 1966, MULTIVARIKAGE ANAL, P457
   GUPTA SS, 1969, MULTIVARIATE ANAL, V2, P475
   GUPTA SS, 1969, DESIGN COMPUTER SIMU, P132
   LEHMANN EL, 1959, STATISTICAL HYPOTHES
   MAHAMUNULU DM, 1967, ANN MATH STAT, V38, P1079, DOI 10.1214/aoms/1177698778
   NAGEL K, 1970, 222 PURD U DEP STAT
   SOBEL M, 1969, MULTIVARIATE ANAL, V2, P515
NR 9
TC 21
Z9 21
U1 0
U2 2
PU INST MATHEMATICAL STATISTICS
PI HAYWARD
PA IMS BUSINESS OFFICE-SUITE 7, 3401 INVESTMENT BLVD, HAYWARD, CA 94545
SN 0003-4851
J9 ANN MATH STAT
PY 1972
VL 43
IS 3
BP 814
EP &
DI 10.1214/aoms/1177692547
PG 0
WC Mathematics; Statistics & Probability
SC Mathematics
GA M8459
UT WOS:A1972M845900007
ER

PT J
AU JOHNSON, RA
   MEHROTRA, KG
AF JOHNSON, RA
   MEHROTRA, KG
TI LOCALLY MOST POWERFUL RANT TESTS FOR 2-SAMPLE PROBLEM WITH CENSORED DATA
SO ANNALS OF MATHEMATICAL STATISTICS
LA English
DT Article
CR BASU AP, 1968, ANN MATH STAT, V39, P1591
   CHERNOFF H, 1958, ANN MATH STAT, V29, P972, DOI 10.1214/aoms/1177706436
   DOKSUM K, 1957, ANN MATH ST, V38, P1731
   DUPAC V, 1969, ANN MATH STAT, V40, P1992, DOI 10.1214/aoms/1177697281
   GASTWIRTH JL, 1965, ANN MATH STAT, V36, P1243, DOI 10.1214/aoms/1177699995
   GOVINARJULU Z, 1969, 5 P BERK S MATH STAT, P609
   Hajek J, 1967, THEORY RANK TESTS
   LEHMANN EL, 1959, TESTING STATISTICAL
   LOCHNER RH, 1968, THESIS U WISCONSIN
   PYKE R, 1968, ANN MATH ST, V39, P549
   RAO UVR, 1960, ANN MATH STAT, V31, P415, DOI 10.1214/aoms/1177705904
NR 11
TC 31
Z9 31
U1 0
U2 0
PU INST MATHEMATICAL STATISTICS
PI HAYWARD
PA IMS BUSINESS OFFICE-SUITE 7, 3401 INVESTMENT BLVD, HAYWARD, CA 94545
SN 0003-4851
J9 ANN MATH STAT
PY 1972
VL 43
IS 3
BP 823
EP &
DI 10.1214/aoms/1177692548
PG 0
WC Mathematics; Statistics & Probability
SC Mathematics
GA M8459
UT WOS:A1972M845900008
ER

PT J
AU KOUL, HL
   STAUDTE, RG
AF KOUL, HL
   STAUDTE, RG
TI WEAK CONVERGENCE OF WEIGHTED EMPIRICAL CUMULATIVES BASED ON RANKS
SO ANNALS OF MATHEMATICAL STATISTICS
LA English
DT Article
CR DUPAC V, 1969, ANN MATH STAT, V40, P1992, DOI 10.1214/aoms/1177697281
   DUPAC V, 1970, NONPARAMETRIC TECHNI, P75
   HAJEK J, 1968, THEORY RANK TESTS
   KOUL HL, 1970, ANN MATH STAT, V41, P1768, DOI 10.1214/aoms/1177696824
   KOUL HL, 1971, 277 MICH STAT U RES
   SMIRNOV NV, 1947, COMPTES RENDU DOKLAD
NR 6
TC 7
Z9 7
U1 0
U2 0
PU INST MATHEMATICAL STATISTICS
PI HAYWARD
PA IMS BUSINESS OFFICE-SUITE 7, 3401 INVESTMENT BLVD, HAYWARD, CA 94545
SN 0003-4851
J9 ANN MATH STAT
PY 1972
VL 43
IS 3
BP 832
EP &
DI 10.1214/aoms/1177692549
PG 0
WC Mathematics; Statistics & Probability
SC Mathematics
GA M8459
UT WOS:A1972M845900009
ER

PT J
AU KOUL, HL
AF KOUL, HL
TI SOME ASYMPTOTIC RESULTS ON RANDOM RANK STATISTICS
SO ANNALS OF MATHEMATICAL STATISTICS
LA English
DT Article
CR BRIEMAN L, 1968, PROBABILITY
   FERNANDEZ P, 1970, THESIS U CALIFORNIA
   GOVINDARAJUL Z, 1965, 5 P BERK S MATH STAT, V1, P609
   HAJEK J, 1968, ANN MATH STAT, V39, P325, DOI 10.1214/aoms/1177698394
   JURECKOV.J, 1969, ANN MATH STAT, V40, P1889, DOI 10.1214/aoms/1177697273
   KOUL HL, 1970, ANN MATH STAT, V41, P1273, DOI 10.1214/aoms/1177696902
   KOUL HL, 1971, ANN MATH STAT, V42, P466, DOI 10.1214/aoms/1177693398
   KOUL HL, 1970, ANN MATH STAT, V41, P1768, DOI 10.1214/aoms/1177696824
   KOUL HL, 1969, ANN MATH STAT, V40, P1950, DOI 10.1214/aoms/1177697278
   KOUL HL, 1970, ANN MATH STAT, V41, P2144, DOI 10.1214/aoms/1177696717
   PYKE R, 1968, ANN MATH STAT, V39, P1675
NR 11
TC 0
Z9 0
U1 0
U2 0
PU INST MATHEMATICAL STATISTICS
PI HAYWARD
PA IMS BUSINESS OFFICE-SUITE 7, 3401 INVESTMENT BLVD, HAYWARD, CA 94545
SN 0003-4851
J9 ANN MATH STAT
PY 1972
VL 43
IS 3
BP 842
EP &
DI 10.1214/aoms/1177692550
PG 0
WC Mathematics; Statistics & Probability
SC Mathematics
GA M8459
UT WOS:A1972M845900010
ER

PT J
AU DWASS, M
AF DWASS, M
TI UNIBASED COIN TOSSING WITH DISCRETE RANDOM-VARIABLES
SO ANNALS OF MATHEMATICAL STATISTICS
LA English
DT Article
CR HOEFFDIN.W, 1970, ANN MATH STAT, V41, P341, DOI 10.1214/aoms/1177697074
NR 1
TC 4
Z9 4
U1 0
U2 0
PU INST MATHEMATICAL STATISTICS
PI HAYWARD
PA IMS BUSINESS OFFICE-SUITE 7, 3401 INVESTMENT BLVD, HAYWARD, CA 94545
SN 0003-4851
J9 ANN MATH STAT
PY 1972
VL 43
IS 3
BP 860
EP &
DI 10.1214/aoms/1177692551
PG 0
WC Mathematics; Statistics & Probability
SC Mathematics
GA M8459
UT WOS:A1972M845900011
ER

PT J
AU ELIAS, P
AF ELIAS, P
TI EFFICIENT CONSTRUCTION OF AN UNBIASED RANDOM SEQUENCE
SO ANNALS OF MATHEMATICAL STATISTICS
LA English
DT Article
CR GALLAGER RG, 1968, INFORMATION THEORY R
   HOEFFDIN.W, 1970, ANN MATH STAT, V41, P341, DOI 10.1214/aoms/1177697074
   SAMUELSON PA, 1968, J AM STAT ASSOC, V63, P1526, DOI 10.2307/2285902
   Shannon CE, 1949, MATHEMATICAL THEORY
   VONNEUMANN J, 1951, NBS APPL MATH SER, P36
NR 5
TC 73
Z9 73
U1 0
U2 2
PU INST MATHEMATICAL STATISTICS
PI HAYWARD
PA IMS BUSINESS OFFICE-SUITE 7, 3401 INVESTMENT BLVD, HAYWARD, CA 94545
SN 0003-4851
J9 ANN MATH STAT
PY 1972
VL 43
IS 3
BP 865
EP &
DI 10.1214/aoms/1177692552
PG 0
WC Mathematics; Statistics & Probability
SC Mathematics
GA M8459
UT WOS:A1972M845900012
ER

PT J
AU BERRY, DA
AF BERRY, DA
TI BERNOULLI 2-ARMED BANDIT
SO ANNALS OF MATHEMATICAL STATISTICS
LA English
DT Article
CR BERRY DA, 1971, 151 U MINN SCH STAT
   BRADT RN, 1956, ANN MATH STAT, V27, P1060, DOI 10.1214/aoms/1177728073
   Chernoff Herman, 1968, SANKHYA            A, V30, P221
   DEGROTT M, 1970, OPTIMAL STATISTICAL
   DUBINS LE, 1965, HOW GAMBLE IF YOU MU
   FABIUS J, 1970, ANN MATH STAT, V41, P1906, DOI 10.1214/aoms/1177696692
   FELDMAN D, 1962, ANN MATH STAT, V33, P847, DOI 10.1214/aoms/1177704454
   FELLER W., 1966, INTRO PROBABILITY TH, VII
   Hardy G. H., 1934, INEQUALITIES
   LIEHMANN EL, 1966, ANN MATH ST, V37, P1137
   QUISEL K, 1965, 137 STANF U I MATH S
   Raiffa H, 1961, APPLIED STATISTICAL
   WIDDER DV, 1961, ADVANCED CALCULUS
   YAKOWITZ SJ, 1969, MATHAMATICS ADAPTIVE
NR 14
TC 52
Z9 52
U1 1
U2 1
PU INST MATHEMATICAL STATISTICS
PI HAYWARD
PA IMS BUSINESS OFFICE-SUITE 7, 3401 INVESTMENT BLVD, HAYWARD, CA 94545
SN 0003-4851
J9 ANN MATH STAT
PY 1972
VL 43
IS 3
BP 871
EP &
DI 10.1214/aoms/1177692553
PG 0
WC Mathematics; Statistics & Probability
SC Mathematics
GA M8459
UT WOS:A1972M845900013
ER

PT J
AU FRASER, DAS
AF FRASER, DAS
TI DETERMINATION OF LIKELIHOOD AND TRANSFORMED REGRESSION MODEL
SO ANNALS OF MATHEMATICAL STATISTICS
LA English
DT Article
CR BOX GEP, 1964, J ROY STAT SOC B, V26, P211
   FRASER DAS, 1967, ANN MATH STAT, V38, P1456, DOI 10.1214/aoms/1177698700
   Fraser D.A.S., 1968, STRUCTURE INFERENCE
NR 3
TC 9
Z9 9
U1 0
U2 0
PU INST MATHEMATICAL STATISTICS
PI HAYWARD
PA IMS BUSINESS OFFICE-SUITE 7, 3401 INVESTMENT BLVD, HAYWARD, CA 94545
SN 0003-4851
J9 ANN MATH STAT
PY 1972
VL 43
IS 3
BP 898
EP &
DI 10.1214/aoms/1177692554
PG 0
WC Mathematics; Statistics & Probability
SC Mathematics
GA M8459
UT WOS:A1972M845900014
ER

PT J
AU FISHBURN, PC
AF FISHBURN, PC
TI SUBJECTIVE EXPECTED UTILITY WITH MIXTURE SETS AND BOOLEAN ALGEBRAS
SO ANNALS OF MATHEMATICAL STATISTICS
LA English
DT Article
CR DUBINS LE, 1965, HOW GAMBLE IF YOU MU
   FELLER W., 1966, INTRO PROBABILITY TH, VII
   FISHBURN PC, 1969, ANN MATH STAT, V40, P1419, DOI 10.1214/aoms/1177697513
   FISHBURN PC, 1967, ANN MATH STAT, V38, P1605, DOI 10.1214/aoms/1177698594
   Fishburn Peter C, 1970, UTILITY THEORY DECIS
   Herstein IN, 1953, ECONOMETRICA, V21, P291, DOI 10.2307/1905540
   SAVAGE LJ, 1954, FOUNDATIONS STATISTI
   VILLEGAS C, 1964, ANN MATH STAT, V35, P1787, DOI 10.1214/aoms/1177700400
   Von Neumann J., 1947, THEORY GAMES ECONOMI
NR 9
TC 5
Z9 5
U1 0
U2 0
PU INST MATHEMATICAL STATISTICS
PI HAYWARD
PA IMS BUSINESS OFFICE-SUITE 7, 3401 INVESTMENT BLVD, HAYWARD, CA 94545
SN 0003-4851
J9 ANN MATH STAT
PY 1972
VL 43
IS 3
BP 917
EP &
DI 10.1214/aoms/1177692555
PG 0
WC Mathematics; Statistics & Probability
SC Mathematics
GA M8459
UT WOS:A1972M845900015
ER

PT J
AU FERREIRA, PE
AF FERREIRA, PE
TI SUBJECTIVE PROBABILITY AND EXPECTED UTILITIES
SO ANNALS OF MATHEMATICAL STATISTICS
LA English
DT Article
CR ANSCOMBE FJ, 1963, ANN MATH STAT, V34, P199, DOI 10.1214/aoms/1177704255
   Ferguson T., 1967, MATHEMATICAL STATIST
   FISHBURN PC, 1972, ANN MATH STAT, V43, P917, DOI 10.1214/aoms/1177692555
   FISHBURN PC, 1969, ANN MATH STAT, V40, P1419, DOI 10.1214/aoms/1177697513
   Jensen N. -E., 1967, SWED J ECON, V69, P163, DOI 10.2307/3439089
   VILLEGAS C, 1967, AM MATH MON, V74, P661, DOI 10.2307/2314250
   Von Neumann J., 1947, THEORY GAMES ECONOMI
NR 7
TC 3
Z9 3
U1 0
U2 0
PU INST MATHEMATICAL STATISTICS
PI HAYWARD
PA IMS BUSINESS OFFICE-SUITE 7, 3401 INVESTMENT BLVD, HAYWARD, CA 94545
SN 0003-4851
J9 ANN MATH STAT
PY 1972
VL 43
IS 3
BP 928
EP &
DI 10.1214/aoms/1177692556
PG 0
WC Mathematics; Statistics & Probability
SC Mathematics
GA M8459
UT WOS:A1972M845900016
ER

PT J
AU JOHNS, MV
   VANRYZIN, J
AF JOHNS, MV
   VANRYZIN, J
TI CONVERGENCE RATES FOR EMPIRICAL BAYES 2-ACTION PROBLEMS .2. CONTINUOUS
   CASE
SO ANNALS OF MATHEMATICAL STATISTICS
LA English
DT Article
CR JOHNS MV, 1971, ANN MATH STAT, V42, P1521, DOI 10.1214/aoms/1177693151
   LEHMAN EL, 1959, TESTING STATISTICAL
   LOEVE M, 1963, PROBABILITY THEOR
   PARZEN E, 1962, ANN MATH STAT, V33, P1065, DOI 10.1214/aoms/1177704472
   Robbins H., 1963, REV I INT STATIST, V31, P195, DOI 10.2307/1401373
   SAMUEL E, 1963, ANN MATH STAT, V34, P1370, DOI 10.1214/aoms/1177703870
   SCHUSTER EF, 1969, ANN MATH STAT, V40, P1187, DOI 10.1214/aoms/1177697495
NR 7
TC 70
Z9 83
U1 0
U2 0
PU INST MATHEMATICAL STATISTICS
PI HAYWARD
PA IMS BUSINESS OFFICE-SUITE 7, 3401 INVESTMENT BLVD, HAYWARD, CA 94545
SN 0003-4851
J9 ANN MATH STAT
PY 1972
VL 43
IS 3
BP 934
EP &
DI 10.1214/aoms/1177692557
PG 0
WC Mathematics; Statistics & Probability
SC Mathematics
GA M8459
UT WOS:A1972M845900017
ER

PT J
AU MARTIN, RD
   SCHWARTZ, SC
AF MARTIN, RD
   SCHWARTZ, SC
TI MIXTURE, QUASI-MIXTURE AND NEARLY NORMAL RANDOM PROCESSES
SO ANNALS OF MATHEMATICAL STATISTICS
LA English
DT Article
CR BLAKE IF, 1967, THESIS PRINCETON U
   Cramer H, 1967, STATIONARY RELATED S
   DAVENPORT WB, 1958, RANDOM SIGNALS NOISE, P155
   Doob J. L., 1953, STOCHASTIC PROCESSES
   HUBER PJ, 1964, ANN MATH STAT, V35, P73, DOI 10.1214/aoms/1177703732
   Kolmogorov A. N., 1960, THEOR PROBAB APPL, V5, P204, DOI 10.1137/1105018
   MARTIN RD, 1969, THESIS PRINCETON U
   Rosenblatt M., 1962, RANDOM PROCESSES
   Rozanov Y. A., 1967, STATIONARY RANDOM PR
   TEICHER H, 1963, ANN MATH STAT, V34, P1265, DOI 10.1214/aoms/1177703862
   Tukey J.W., 1960, CONTRIBUTIONS PROBAB, P448
   VANNESS JW, 1968, SIAM REV, V10, P422
   Vershik A. M., 1964, THEORY PROBABILITY I, V9, P353, DOI 10.1137/1109053
   YAKOWITZ S, 1969, ANN MATH STAT, V40, P1728, DOI 10.1214/aoms/1177697384
   YAKOWITZ SJ, 1968, ANN MATH STAT, V39, P209, DOI 10.1214/aoms/1177698520
NR 15
TC 4
Z9 4
U1 0
U2 0
PU INST MATHEMATICAL STATISTICS
PI HAYWARD
PA IMS BUSINESS OFFICE-SUITE 7, 3401 INVESTMENT BLVD, HAYWARD, CA 94545
SN 0003-4851
J9 ANN MATH STAT
PY 1972
VL 43
IS 3
BP 948
EP &
DI 10.1214/aoms/1177692558
PG 0
WC Mathematics; Statistics & Probability
SC Mathematics
GA M8459
UT WOS:A1972M845900018
ER

PT J
AU COCKE, WJ
AF COCKE, WJ
TI CENTRAL LIMIT THEOREMS FOR SUMS OF DEPENDENT VECTOR VARIABLES
SO ANNALS OF MATHEMATICAL STATISTICS
LA English
DT Article
CR Batchelor G. K., 1967, THEORY HOMOGENEOUS T
   COCKE WJ, 1971, PHYS FLUIDS, V14, P1624, DOI 10.1063/1.1693656
   FELLER W., 1966, INTRO PROBABILITY TH, VII
   Gnedenko B., 1962, THEORY PROBABILITY
   GNEDENKO BW, 1958, WAHRSCHEINLICHKEITSR
   KHINCHIN A, 1949, MATHEMATICAL FOUNDAT, pCH5
   PHILIPP W, 1969, Z WAHRSCHEINLICHKEIT, V12, P155, DOI 10.1007/BF00531648
   ROSEN B, 1967, Z WAHRSCHEINLICHKEIT, V1, P95
   ROSEN B, 1967, Z WAHRSCHEINLICHKEIT, V1, P48
   ROSENBLATT M, 1962, RANDOM PROCESSES, P198
   SERFLING RJ, 1968, ANN MATH STAT, V39, P1158, DOI 10.1214/aoms/1177698240
NR 11
TC 8
Z9 8
U1 0
U2 1
PU INST MATHEMATICAL STATISTICS
PI HAYWARD
PA IMS BUSINESS OFFICE-SUITE 7, 3401 INVESTMENT BLVD, HAYWARD, CA 94545
SN 0003-4851
J9 ANN MATH STAT
PY 1972
VL 43
IS 3
BP 968
EP &
DI 10.1214/aoms/1177692559
PG 0
WC Mathematics; Statistics & Probability
SC Mathematics
GA M8459
UT WOS:A1972M845900019
ER

PT J
AU GEMAN, D
AF GEMAN, D
TI VARIANCE OF NUMBER OF ZEROS OF A STATIONARY GAUSSIAN PROCESS
SO ANNALS OF MATHEMATICAL STATISTICS
LA English
DT Article
RI Geman, Donald/A-3325-2010
CR CRAMER H, 1965, ANN MATH STAT, V36, P1656, DOI 10.1214/aoms/1177699794
   CRAMER H, 1967, STATION RELATED STOC
   GEMAN D, 1970, THESIS NORTHWESTERN
   KAC M, 1959, ANN MATH STAT, V30, P1215, DOI 10.1214/aoms/1177706105
   MARCUS MB, 1970, T AM MATH SOC, V151, P377, DOI 10.2307/1995502
   PITMAN EJG, 1961, 4TH P BERK S, V2, P393
   QUALLS, 1968, ANN MATH ST, V39, P2108
   SLEPIAN D, 1963, TIME SERIES ANALYSIS
   YLVISAKER ND, 1966, ANN MATH STAT, V37, P682, DOI 10.1214/aoms/1177699461
NR 9
TC 17
Z9 17
U1 0
U2 0
PU INST MATHEMATICAL STATISTICS
PI HAYWARD
PA IMS BUSINESS OFFICE-SUITE 7, 3401 INVESTMENT BLVD, HAYWARD, CA 94545
SN 0003-4851
J9 ANN MATH STAT
PY 1972
VL 43
IS 3
BP 977
EP &
DI 10.1214/aoms/1177692560
PG 0
WC Mathematics; Statistics & Probability
SC Mathematics
GA M8459
UT WOS:A1972M845900020
ER

PT J
AU PARK, WJ
AF PARK, WJ
TI CONSISTENT ESTIMATION OF KERNEL FUNCTIONS IN MULTIPLE WIENER INTEGRALS
SO ANNALS OF MATHEMATICAL STATISTICS
LA English
DT Article
CR CLARK JMC, 1970, ANN MATH STAT, V41, P1282, DOI 10.1214/aoms/1177696903
   Doob J. L., 1953, STOCHASTIC PROCESSES
   ISAACSON D, 1969, ANN MATH STAT, V40, P1610, DOI 10.1214/aoms/1177697376
   Ito K., 1951, J MATH SOC JAPAN, V3, P157
   PARZEN E, 1961, ANN MATH STAT, V32, P951, DOI 10.1214/aoms/1177704840
NR 5
TC 0
Z9 0
U1 0
U2 1
PU INST MATHEMATICAL STATISTICS
PI HAYWARD
PA IMS BUSINESS OFFICE-SUITE 7, 3401 INVESTMENT BLVD, HAYWARD, CA 94545
SN 0003-4851
J9 ANN MATH STAT
PY 1972
VL 43
IS 3
BP 983
EP &
DI 10.1214/aoms/1177692561
PG 0
WC Mathematics; Statistics & Probability
SC Mathematics
GA M8459
UT WOS:A1972M845900021
ER

PT J
AU EICKER, PJ
   SIDDIQUI, MM
   MIELKE, PW
AF EICKER, PJ
   SIDDIQUI, MM
   MIELKE, PW
TI MATRIX OCCUPANCY PROBLEM
SO ANNALS OF MATHEMATICAL STATISTICS
LA English
DT Article
CR COWAN D W, 1963, J Air Pollut Control Assoc, V13, P546
   MIELKE PW, 1965, J AM STAT ASSOC, V60, P437, DOI 10.2307/2282681
   ROSEN B, 1967, Z WAHRSCHEINLICHKEIT, V7, P48, DOI 10.1007/BF00532097
   ROSEN B, 1967, Z WAHRSCHEINLICHKEIT, V7, P95, DOI 10.1007/BF00536323
NR 4
TC 10
Z9 10
U1 0
U2 0
PU INST MATHEMATICAL STATISTICS
PI HAYWARD
PA IMS BUSINESS OFFICE-SUITE 7, 3401 INVESTMENT BLVD, HAYWARD, CA 94545
SN 0003-4851
J9 ANN MATH STAT
PY 1972
VL 43
IS 3
BP 988
EP &
DI 10.1214/aoms/1177692562
PG 0
WC Mathematics; Statistics & Probability
SC Mathematics
GA M8459
UT WOS:A1972M845900022
ER

PT J
AU ERICKSON, RV
AF ERICKSON, RV
TI STATIONARY MEASURES FOR A CLASS OF STORAGE MODELS DRIVEN BY A MARKOV
   CHAIN
SO ANNALS OF MATHEMATICAL STATISTICS
LA English
DT Article
CR AZEMA J, 1966, ANN I H POINCARE B, V2, P185
   AZEMA J, 1967, Z WAHRSCHEINLICHKEIT, V8, P157, DOI 10.1007/BF00531519
   AZEMA J, 1967, ANN I H POINCARE B, V3, P397
   Blumenthal R.M., 1968, MARKOV PROCESSES POT
   BROCKWELL PJ, TO BE PUBLISHED
   DYNKINE B, 1965, MARKOV PROCESSES
   MEYER P.-A., 1962, ANN I FOURIER GRENOB, V12, P125
   WELDON KLM, 1969, 9 STANF U STAT DEP T
NR 8
TC 5
Z9 5
U1 0
U2 0
PU INST MATHEMATICAL STATISTICS
PI HAYWARD
PA IMS BUSINESS OFFICE-SUITE 7, 3401 INVESTMENT BLVD, HAYWARD, CA 94545
SN 0003-4851
J9 ANN MATH STAT
PY 1972
VL 43
IS 3
BP 997
EP &
DI 10.1214/aoms/1177692563
PG 0
WC Mathematics; Statistics & Probability
SC Mathematics
GA M8459
UT WOS:A1972M845900023
ER

PT J
AU BLUM, JR
   PATHAK, PK
AF BLUM, JR
   PATHAK, PK
TI ZERO-ONE LAW
SO ANNALS OF MATHEMATICAL STATISTICS
LA English
DT Note
CR BLUM JR, 1962, J MATH MECH, V11, P497
   HEWITT E., 1955, T AM MATH SOC, V80, P470, DOI DOI 10.1090/S0002-9947-955-0076206-8
   HORN S, 1970, ANN MATH STAT, V41, P2130, DOI 10.1214/aoms/1177696712
NR 3
TC 8
Z9 8
U1 0
U2 0
PU INST MATHEMATICAL STATISTICS
PI HAYWARD
PA IMS BUSINESS OFFICE-SUITE 7, 3401 INVESTMENT BLVD, HAYWARD, CA 94545
SN 0003-4851
J9 ANN MATH STAT
PY 1972
VL 43
IS 3
BP 1008
EP &
DI 10.1214/aoms/1177692564
PG 0
WC Mathematics; Statistics & Probability
SC Mathematics
GA M8459
UT WOS:A1972M845900024
ER

PT J
AU SHUSTER, J
AF SHUSTER, J
TI GENERALIZATION OF WEAK VERSION OF GLIVENKO-CANTELLI THEOREM
SO ANNALS OF MATHEMATICAL STATISTICS
LA English
DT Note
CR SESHADRI V, 1969, J ROY STAT SOC B, V31, P499
   Titchmarsh E. C., 1939, THEORY FUNCTIONS
NR 2
TC 0
Z9 0
U1 0
U2 0
PU INST MATHEMATICAL STATISTICS
PI HAYWARD
PA IMS BUSINESS OFFICE-SUITE 7, 3401 INVESTMENT BLVD, HAYWARD, CA 94545
SN 0003-4851
J9 ANN MATH STAT
PY 1972
VL 43
IS 3
BP 1010
EP &
DI 10.1214/aoms/1177692565
PG 0
WC Mathematics; Statistics & Probability
SC Mathematics
GA M8459
UT WOS:A1972M845900025
ER

PT J
AU STRATTON, HH
AF STRATTON, HH
TI MOMENTS OF OSCILLATIONS AND RULED SUMS
SO ANNALS OF MATHEMATICAL STATISTICS
LA English
DT Note
CR KATZ ML, 1963, ANN MATH STAT, V34, P312, DOI 10.1214/aoms/1177704268
   Loeve M., 1955, PROBABILITY THEORY
   SLIVKA J, 1970, P AM MATH SOC, V24, P729, DOI 10.2307/2037312
   SLIVKA J, 1969, P NATL ACAD SCI USA, V63, P289, DOI 10.1073/pnas.63.2.289
NR 4
TC 17
Z9 17
U1 0
U2 0
PU INST MATHEMATICAL STATISTICS
PI HAYWARD
PA IMS BUSINESS OFFICE-SUITE 7, 3401 INVESTMENT BLVD, HAYWARD, CA 94545
SN 0003-4851
J9 ANN MATH STAT
PY 1972
VL 43
IS 3
BP 1012
EP &
DI 10.1214/aoms/1177692566
PG 0
WC Mathematics; Statistics & Probability
SC Mathematics
GA M8459
UT WOS:A1972M845900026
ER

PT J
AU SACKROWITZ, H
AF SACKROWITZ, H
TI APPROACHABILITY IN A 2-PERSON GAME
SO ANNALS OF MATHEMATICAL STATISTICS
LA English
DT Note
CR BLACKWELL D, 1956, P INT C MATH, V3, P336
   HOUT TF, 1971, ANN MATH STAT, V42, P735
NR 2
TC 1
Z9 1
U1 0
U2 0
PU INST MATHEMATICAL STATISTICS
PI CLEVELAND
PA 3163 SOMERSET DR, CLEVELAND, OH 44122 USA
SN 0003-4851
J9 ANN MATH STAT
JI Ann. Math. Stat.
PY 1972
VL 43
IS 3
BP 1017
EP +
DI 10.1214/aoms/1177692567
PG 1
WC Mathematics; Statistics & Probability
SC Mathematics
GA M8459
UT WOS:A1972M845900027
ER

PT J
AU POPSTOJA.ZR
AF POPSTOJA.ZR
TI RIESZ DECOMPOSITION FOR WEAK BANACH-VALUED QUASI-MARTINGALES
SO ANNALS OF MATHEMATICAL STATISTICS
LA English
DT Note
CR BROOKS JK, 1969, P NATL ACAD SCI USA, V63, P266, DOI 10.1073/pnas.63.2.266
   Doob J. L., 1953, STOCHASTIC PROCESSES
   Dunford N, 1940, T AM MATH SOC, V47, P323, DOI 10.2307/1989960
   FISK DL, 1965, T AM MATH SOC, V120, P369, DOI 10.2307/1994531
   HILLE E, 1957, FUNCTIONAL ANALYSIS
   METIVIER M, 1967, LECTURE NOTES MATHEM
   MEYER PA, 1966, PROBABILITIES POTENT
   OREY S, 1967, 5TH BERK S MATH STAT, V2, P301
   POPSTOJA.ZR, 1970, NOT AM MATH SOC, V17, P1063
   POPSTOJANOVIC ZR, 1971, MATH SYSTEMS THEORY, V5, P41
   RAO KM, 1969, MATH SCAND, V24, P79
   SCALORA FS, 1961, PACIFIC J MATH, V2, P347
NR 12
TC 0
Z9 0
U1 0
U2 0
PU INST MATHEMATICAL STATISTICS
PI HAYWARD
PA IMS BUSINESS OFFICE-SUITE 7, 3401 INVESTMENT BLVD, HAYWARD, CA 94545
SN 0003-4851
J9 ANN MATH STAT
PY 1972
VL 43
IS 3
BP 1020
EP &
DI 10.1214/aoms/1177692568
PG 0
WC Mathematics; Statistics & Probability
SC Mathematics
GA M8459
UT WOS:A1972M845900028
ER

PT J
AU ALDER, RL
   SMORODIN.M
   SHIELDS, P
AF ALDER, RL
   SMORODIN.M
   SHIELDS, P
TI IRREDUCIBLE MARKOV SHIFTS
SO ANNALS OF MATHEMATICAL STATISTICS
LA English
DT Note
CR Billingsley P., 1965, ERGODIC THEORY INFOR
   FELLER W., 1957, INTRO PROBABILITY TH, VI
   FRIEDMAN NA, 1970, ADV MATH, V5, P365, DOI 10.1016/0001-8708(70)90010-1
   ORSTEIN DS, 1970, ADVANCES MATH, V4, P337
NR 4
TC 0
Z9 0
U1 0
U2 0
PU INST MATHEMATICAL STATISTICS
PI HAYWARD
PA IMS BUSINESS OFFICE-SUITE 7, 3401 INVESTMENT BLVD, HAYWARD, CA 94545
SN 0003-4851
J9 ANN MATH STAT
PY 1972
VL 43
IS 3
BP 1027
EP &
PG 0
WC Mathematics; Statistics & Probability
SC Mathematics
GA M8459
UT WOS:A1972M845900029
ER

PT J
AU LIND, B
   ROUSSAS, G
AF LIND, B
   ROUSSAS, G
TI REMARK ON QUADRATIC MEAN DIFFERENTIABILITY
SO ANNALS OF MATHEMATICAL STATISTICS
LA English
DT Note
CR FRANKLIN P, 1964, TREATISE ADVANCED CA
   JOHNSON RA, 1969, ANN MATH STAT, V40, P1207, DOI 10.1214/aoms/1177697497
   JOHNSON RA, 1970, ANN MATH STAT, V41, P918, DOI 10.1214/aoms/1177696969
   JOHNSON RA, 1971, 6 P BERK S MATH STAT
   Le Cam L, 1960, U CALIFORNIA PUBL ST, V3, P37
   LECAM L, 1966, RESEARCH PAPERS STAT
   ROUSSAS GG, 1965, ANN MATH STAT, V36, P978, DOI 10.1214/aoms/1177700070
   ROUSSAS GG, 1968, Z WAHRSCHEINLICHKEIT, V10, P252, DOI 10.1007/BF00536278
   Rudin W., 1966, REAL COMPLEX ANALYSI
NR 9
TC 3
Z9 3
U1 0
U2 0
PU INST MATHEMATICAL STATISTICS
PI HAYWARD
PA IMS BUSINESS OFFICE-SUITE 7, 3401 INVESTMENT BLVD, HAYWARD, CA 94545
SN 0003-4851
J9 ANN MATH STAT
PY 1972
VL 43
IS 3
BP 1030
EP &
DI 10.1214/aoms/1177692570
PG 0
WC Mathematics; Statistics & Probability
SC Mathematics
GA M8459
UT WOS:A1972M845900030
ER

PT J
AU EISENHART, C
   ROSENBLA.JR
AF EISENHART, C
   ROSENBLA.JR
TI YOUDEN,WJ 1900-1971
SO ANNALS OF MATHEMATICAL STATISTICS
LA English
DT Biographical-Item
CR YOUDEN WJ, ALL CITATIONS
NR 1
TC 3
Z9 3
U1 0
U2 0
PU INST MATHEMATICAL STATISTICS
PI CLEVELAND
PA 3163 SOMERSET DR, CLEVELAND, OH 44122 USA
SN 0003-4851
J9 ANN MATH STAT
JI Ann. Math. Stat.
PY 1972
VL 43
IS 4
BP 1035
EP +
DI 10.1214/aoms/1177692458
PG 1
WC Mathematics; Statistics & Probability
SC Mathematics
GA N4288
UT WOS:A1972N428800001
ER

PT J
AU HUBER, PJ
AF HUBER, PJ
TI 1972 WALD LECTURE - ROBUST STATISTICS - REVIEW
SO ANNALS OF MATHEMATICAL STATISTICS
LA English
DT Review
CR ADICHIE JN, 1967, ANN MATH STAT, V38, P894, DOI 10.1214/aoms/1177698883
   Andrews D. F., 1972, ROBUST ESTIMATES LOC
   ANSCOMBE FJ, 1966, J RES NBS B MATH SCI, VB 70, P141, DOI 10.6028/jres.070B.011
   ANSCOMBE FJ, 1967, J ROY STAT SOC B, V29, P1
   Anscombe F.J., 1960, TECHNOMETRICS, V2, P123, DOI DOI 10.1080/00401706.1960.10489888
   BESSEL FW, 1938, GRADMESSUNG OSTPREUS
   Bessel F. W., 1838, ASTRONOMISCHE NACHRI, V15, P369
   BESSEL FW, 1918, FUNDAMENTA ASTRONOMI
   BICKEL PJ, 1965, ANN MATH STAT, V36, P847, DOI 10.1214/aoms/1177700058
   BICKEL PJ, 1964, ANN MATH STAT, V35, P1079, DOI 10.1214/aoms/1177703266
   BICKEL PJ, 1967, ANN MATH STAT, V38, P73, DOI 10.1214/aoms/1177699059
   Bickel P., 1967, 5TH P BERK S MATH ST, V1, P575
   BICKEL PJ, UNPUBLISHED MANUSCRI
   Billingsley P., 1968, CONVERGENCE PROBABIL
   BIRNBAUM A, 1970, J AM STAT ASSOC, V65, P1265, DOI 10.2307/2284294
   BIRNBAUM A, 1967, J AM STAT ASSOC, V62, P1230, DOI 10.2307/2283772
   BOX GEP, 1962, BIOMETRIKA, V49, P419
   BOX GEP, 1953, BIOMETRIKA, V40, P318, DOI 10.2307/2333350
   BOX GEP, 1964, BIOMETRIKA, V51, P169, DOI 10.2307/2334204
   BOX GEP, 1955, J ROY STAT SOC B, V17, P1
   BOX GEP, 1964, BIOMETRIKA, V51, P153, DOI 10.1093/biomet/51.1-2.153
   CARNAL H, 1970, Z WAHRSCHEINLICHKEIT, V15, P168, DOI 10.1007/BF00531885
   CHAUVENET W, 1963, MANUAL SPHERICAL PRA
   CHERNOFF H, 1967, ANN MATH STAT, V38, P52, DOI 10.1214/aoms/1177699058
   CHERNOFF H, 1964, ANN I STAT MATH, V16, P31, DOI 10.1007/BF02868560
   CHERNOFF H, 1958, ANN MATH STAT, V29, P972, DOI 10.1214/aoms/1177706436
   CROW EL, 1967, J AM STAT ASSOC, V62, P353, DOI 10.2307/2283968
   CZUBER E, 1891, THEORIE BEOBACHTUNGS
   DIXON WJ, 1968, TECHNOMETRICS, V10, P83, DOI 10.2307/1266226
   FERGUSON TS, 1961, 4 P BERK S MATH STAT, V1, P253
   FILIPPOVA AA, 1962, THEOR PROBAB APPL, V7, P24, DOI 10.1137/1107003
   GASTWIRTH JL, 1966, J AM STAT ASSOC, V61, P929, DOI 10.2307/2283190
   GASTWIRTH JL, 1970, J AM STAT ASSOC, V65, P946, DOI 10.2307/2284600
   GASTWIRTH JL, 1969, 197 PURD U DEP STAT
   GAUSS CF, WERKE, V4, P98
   GAUSS CF, 1821, GOTTINGISCHE GELEHRT, P321
   GENTLEMAN WM, 1965, THESIS PRINCETON U
   GRUBBS FE, 1969, TECHNOMETRICS, V11, P1, DOI 10.2307/1266761
   Hajek J, 1967, THEORY RANK TESTS
   HAMPEL FR, 1971, ANN MATH STAT, V42, P1887, DOI 10.1214/aoms/1177693054
   Hampel F. R., 1968, THESIS U CALIFORNIA
   HODGES JL, 1963, ANN MATH STAT, V34, P598, DOI 10.1214/aoms/1177704172
   HODGES JL, 1967, 5TH P BERK S MATH ST, V1, P163
   HOGG RV, 1967, J AM STAT ASSOC, V62, P1179, DOI 10.2307/2283768
   HOYLAND A, 1968, ANN MATH STAT, V39, P1196, DOI 10.1214/aoms/1177698244
   HUBER PJ, 1964, ANN MATH STAT, V35, P73, DOI 10.1214/aoms/1177703732
   HUBER PJ, 1968, Z WAHRSCHEINLICHKEIT, V10, P269, DOI 10.1007/BF00531848
   HUBER PJ, 1965, ANN MATH STAT, V36, P1753, DOI 10.1214/aoms/1177699803
   HUBER PJ, UNPUBLISHED MANUSCRI
   HUBER PJ, 1968, MATH CTR TRACTS, V27, P3
   Huber PJ, 1967, 5TH P BERK S MATH ST, P221
   Huber P. J, 1970, NONPARAMETRIC TECHNI, P453
   HUBERCAROL C, 1970, THESIS SWISS FEDERAL
   JAECKEL LA, 1971, ANN MATH STAT, V42, P1020, DOI 10.1214/aoms/1177693330
   JAECKEL LA, 1971, ANN MATH STAT, V42, P1540, DOI 10.1214/aoms/1177693152
   JAECKEL LA, 1969, THESIS U CALIFORNIA
   Jeffreys H, 1932, P R SOC LOND A-CONTA, V137, P78, DOI 10.1098/rspa.1932.0122
   Jung J., 1955, ARK MAT, V3, P199
   JURECKOV.J, 1969, ANN MATH STAT, V40, P1889, DOI 10.1214/aoms/1177697273
   KOUL HL, 1969, ANN MATH STAT, V40, P1950, DOI 10.1214/aoms/1177697278
   LEHMANN EL, 1963, ANN MATH STAT, V34, P1494, DOI 10.1214/aoms/1177703881
   LEHMANN EL, 1963, ANN MATH STAT, V34, P957, DOI 10.1214/aoms/1177704018
   LEHMANN EL, 1963, ANN MATH STAT, V34, P1507, DOI 10.1214/aoms/1177703882
   LEONE FC, 1967, TECHNOMETRICS, V9, P652, DOI 10.2307/1266203
   MILLER RG, 1964, ANN MATH STAT, V35, P1594, DOI 10.1214/aoms/1177700384
   MILLER RG, 1968, ANN MATH STAT, V39, P567, DOI 10.1214/aoms/1177698418
   Newcomb S., 1886, AM J MATH, V8, P343, DOI 10.2307/2369392
   NOETHER GE, 1967, J AM STAT ASSOC, V62, P184, DOI 10.2307/2282921
   Pearson ES, 1931, BIOMETRIKA, V23, P114, DOI 10.2307/2333631
   Peirce B., 1852, ASTRON J, V2, P161, DOI 10.1086/100259
   PYKE R, 1968, ANN MATH STAT, V39, P755, DOI 10.1214/aoms/1177698309
   QUENOUILLE MH, 1956, BIOMETRIKA, V43, P353
   RELLES D, 1968, THESIS YALE U
   RENYI A, 1964, Z WAHRSCHEIN, V3, P138, DOI DOI 10.1007/BF00535973
   Renyi A., 1963, Z WAHRSCHEINLICHKEIT, V2, P75, DOI DOI 10.1007/BF00535300
   ROMANOWSKI M, 1965, B GEOD, V76, P1
   SIDDIQUI MM, 1967, J AM STAT ASSOC, V62, P950, DOI 10.2307/2283683
   Strassen V., 1964, Z WAHRSCHEINLICHKEIT, V2, P273, DOI 10.1007/BF00531927
   TAKEUCHI K, 1971, J AM STAT ASSOC, V66, P292, DOI 10.2307/2283926
   THOMAS JB, 1969, INTRO STATISTICAL CO, P298
   TUKEY JW, 1962, ANN MATH STAT, V33, P1, DOI 10.1214/aoms/1177704711
   TUKEY JW, 1958, ANN MATH STAT, V29, P614
   TUKEY J. W., 1963, SANKHYA            A, V25, P331
   Tukey J. W., 1960, CONTRIBUTIONS PROBAB
   VANEEDEN C, 1970, ANN MATH STAT, V41, P172
   VONMISES R, 1947, ANN MATH STAT, V18, P309
   1921, ANN MATH PURES APPL, V12, P181
   [Anonymous], 1927, BIOMETRIKA, V19, P151
NR 88
TC 379
Z9 388
U1 2
U2 10
PU INST MATHEMATICAL STATISTICS
PI HAYWARD
PA IMS BUSINESS OFFICE-SUITE 7, 3401 INVESTMENT BLVD, HAYWARD, CA 94545
SN 0003-4851
J9 ANN MATH STAT
PY 1972
VL 43
IS 4
BP 1041
EP &
DI 10.1214/aoms/1177692459
PG 0
WC Mathematics; Statistics & Probability
SC Mathematics
GA N4288
UT WOS:A1972N428800002
ER

PT J
AU SACKS, J
   YLVISAKER, D
AF SACKS, J
   YLVISAKER, D
TI HUBERS ROBUST ESTIMATION OF A LOCATION PARAMETER
SO ANNALS OF MATHEMATICAL STATISTICS
LA English
DT Article
CR HUBER PJ, 1964, ANN MATH STAT, V35, P73, DOI 10.1214/aoms/1177703732
   Huber P. J., 1969, THEORIE INFERENCE ST
NR 2
TC 20
Z9 21
U1 4
U2 7
PU INST MATHEMATICAL STATISTICS
PI CLEVELAND
PA 3163 SOMERSET DR, CLEVELAND, OH 44122 USA
SN 0003-4851
J9 ANN MATH STAT
JI Ann. Math. Stat.
PY 1972
VL 43
IS 4
BP 1068
EP +
DI 10.1214/aoms/1177692460
PG 1
WC Mathematics; Statistics & Probability
SC Mathematics
GA N4288
UT WOS:A1972N428800003
ER

PT J
AU SPJOTVOLL, E
AF SPJOTVOLL, E
TI MULTIPLE COMPARISON OF REGRESSION FUNCTIONS
SO ANNALS OF MATHEMATICAL STATISTICS
LA English
DT Article
CR ANDERSON TW, 1962, ANN MATH STAT, V33, P255, DOI 10.1214/aoms/1177704729
   Anderson T. W., 1958, INTRO MULTIVARIATE S
   BEALE EML, 1967, BIOMETRIKA, V54, P357
   DRAPER NR, 1966, APPLIED REGRESSION A
   Forsythe G.E., 1965, SIAM J APPL MATH, V13, P1050, DOI 10.1137/0113073
   Hamaker HC, 1962, STAT NEERL, V16, P31, DOI 10.1111/j.1467-9574.1962.tb01184.x
   Hotelling H, 1940, ANN MATH STAT, V11, P271, DOI 10.1214/aoms/1177731867
   LAMOTTE IR, 1970, TECHNOMETRICS, V12, P83
   MALLOWS CL, 1966, CHOOSING SUBSET REGR
   SCHATZOFF M, 1968, TECHNOMETRICS, V10, P769, DOI 10.2307/1267458
   SCHEFFE H, 1959, ANALYSIS VARIANCE
   WILLIAMS EJ, 1959, REGRESSION ANALYSIS
NR 12
TC 33
Z9 33
U1 1
U2 2
PU INST MATHEMATICAL STATISTICS
PI CLEVELAND
PA 3163 SOMERSET DR, CLEVELAND, OH 44122 USA
SN 0003-4851
J9 ANN MATH STAT
JI Ann. Math. Stat.
PY 1972
VL 43
IS 4
BP 1076
EP +
DI 10.1214/aoms/1177692461
PG 1
WC Mathematics; Statistics & Probability
SC Mathematics
GA N4288
UT WOS:A1972N428800004
ER

PT J
AU DUPAC, V
   KRAL, F
AF DUPAC, V
   KRAL, F
TI ROBBINS-MONRO PROCEDURE WITH BOTH VARIABLES SUBJECT TO EXPERIMENTAL
   ERROR
SO ANNALS OF MATHEMATICAL STATISTICS
LA English
DT Article
CR CHUNG KL, 1954, ANN MATH STAT, V25, P463, DOI 10.1214/aoms/1177728716
   DUPAC V, 1957, SELECTED TRANSLATION, V4, P43
   Dupac V., 1957, CASOPIS PEST MAT, V82, P47
   DVORETZKY A, 1956, 3 P BERK S MATH STAT, V1, P39
NR 4
TC 4
Z9 4
U1 0
U2 0
PU INST MATHEMATICAL STATISTICS
PI HAYWARD
PA IMS BUSINESS OFFICE-SUITE 7, 3401 INVESTMENT BLVD, HAYWARD, CA 94545
SN 0003-4851
J9 ANN MATH STAT
PY 1972
VL 43
IS 4
BP 1089
EP &
DI 10.1214/aoms/1177692462
PG 0
WC Mathematics; Statistics & Probability
SC Mathematics
GA N4288
UT WOS:A1972N428800005
ER

PT J
AU HAMILTON, MA
AF HAMILTON, MA
TI STOCHASTIC APPROXIMATION APPROACH TO A DISCRIMINATION PROBLEM
SO ANNALS OF MATHEMATICAL STATISTICS
LA English
DT Article
CR BLUM JR, 1954, ANN MATH STAT, V25, P382, DOI 10.1214/aoms/1177728794
   BURKHOLDER DL, 1956, ANN MATH STAT, V27, P1044, DOI 10.1214/aoms/1177728072
   DVORETZKY A, 1956, 3 P BERK S MATH STAT, V1, P39
   FIELLER EC, 1954, J ROY STAT SOC B, V16, P175
   HAMILTON MA, 1968, 8 STANF U DEP STAT T
   HODGES JL, 1956, 3RD P BERK S BERK, V1, P95
   ROBBINS H, 1951, ANN MATH STAT, V22, P400, DOI 10.1214/aoms/1177729586
   SACKS J, 1958, ANN MATH STAT, V29, P373, DOI 10.1214/aoms/1177706619
   SCHMETTERER L, 1961, 4TH P BERK S MATH ST, V1, P587
   VENTER JH, 1967, ANN MATH STAT, V38, P181, DOI 10.1214/aoms/1177699069
   VENTER JH, 1966, ANN MATH STAT, V37, P1534, DOI 10.1214/aoms/1177699145
   von Mises R., 1929, Z ANGEW MATH MECH, V9, P58
NR 12
TC 0
Z9 0
U1 0
U2 0
PU INST MATHEMATICAL STATISTICS
PI HAYWARD
PA IMS BUSINESS OFFICE-SUITE 7, 3401 INVESTMENT BLVD, HAYWARD, CA 94545
SN 0003-4851
J9 ANN MATH STAT
PY 1972
VL 43
IS 4
BP 1096
EP &
DI 10.1214/aoms/1177692463
PG 0
WC Mathematics; Statistics & Probability
SC Mathematics
GA N4288
UT WOS:A1972N428800006
ER

PT J
AU THOMPSON, ME
   OWEN, WL
AF THOMPSON, ME
   OWEN, WL
TI STRUCTURE OF OPTIMAL STOPPING RULE IN SN/N PROBLEM
SO ANNALS OF MATHEMATICAL STATISTICS
LA English
DT Article
CR Blumenthal R.M., 1968, MARKOV PROCESSES POT
   CHOW YS, 1967, 5 P BERK S MATH STAT, V1, P419
   DAVIS B, 1971, Z WAHRSCHEINLICHKEIT, V17, P147, DOI 10.1007/BF00538865
   DAVIS B, TO BE PUBLISHED
   Doob J. L., 1953, STOCHASTIC PROCESSES
   DVORETZKY A, 1967, 5TH P BERK S MATH ST, V1, P441
   FELLER W, 1967, 5TH P BERK S MATH 1, V2, P373
   FELLER W., 1966, INTRO PROBABILITY TH, VII
   Gikhman I. I., 1969, INTRO THEORY RANDOM
   Marczinkiewicz J., 1938, STUD MATH, V7, P104
   ROGOZIN BA, 1968, THEOR PROBAB APPL+, V13, P482, DOI 10.1137/1113059
   SHEPP LA, 1969, ANN MATH STAT, V40, P993, DOI 10.1214/aoms/1177697604
   Skorohod A.V., 1957, THEOR PROBAB APPL, V2, P145, DOI 10.1137/1102011
   TEICHER H, 1966, Z WAHR VERW GEBIETE, V5, P361, DOI 10.1007/BF00535366
   THOMPSON ME, 1971, ANN MATH STAT, V42, P1936, DOI 10.1214/aoms/1177693060
   THOMPSON ME, 1971, Z WAHRSCHEINLICHKEIT, V19, P302, DOI 10.1007/BF00535835
   WALKER LH, 1969, B AM MATH SOC, V75, P46, DOI 10.1090/S0002-9904-1969-12140-3
NR 17
TC 5
Z9 5
U1 0
U2 0
PU INST MATHEMATICAL STATISTICS
PI HAYWARD
PA IMS BUSINESS OFFICE-SUITE 7, 3401 INVESTMENT BLVD, HAYWARD, CA 94545
SN 0003-4851
J9 ANN MATH STAT
PY 1972
VL 43
IS 4
BP 1110
EP &
DI 10.1214/aoms/1177692464
PG 0
WC Mathematics; Statistics & Probability
SC Mathematics
GA N4288
UT WOS:A1972N428800007
ER

PT J
AU RUYMGAART, FH
   VANZWET, WR
   SHORACK, GR
AF RUYMGAART, FH
   VANZWET, WR
   SHORACK, GR
TI ASYMPTOTIC NORMALITY OF NONPARAMETRIC TESTS FOR INDEPENDENCE
SO ANNALS OF MATHEMATICAL STATISTICS
LA English
DT Article
CR BHUCHONGKUL S, 1964, ANN MATH STAT, V35, P138, DOI 10.1214/aoms/1177703735
   BILLINGSLEY P, 1968, CONVERGENCE PROBABIL
   CHERNOFF H, 1958, ANN MATH STAT, V29, P972, DOI 10.1214/aoms/1177706436
   FELLER W., 1957, INTRO PROBABILITY TH, VI
   GUMBEL EJ, 1958, B I INT STATIST, V37, P363
   Hajek J., 1967, THEORY RANK TESTS
   JOGDEO K, 1968, ANN MATH STAT, V39, P905, DOI 10.1214/aoms/1177698323
   Kiefer J. C., 1961, PAC J MATH, V11, P649
   LEHMANN EL, 1953, ANN MATH STAT, V24, P23, DOI 10.1214/aoms/1177729080
   PYKE R, 1968, ANN MATH STAT, V39, P755, DOI 10.1214/aoms/1177698309
   SHORACK GR, 1972, ANN MATH STAT, V43, P412, DOI 10.1214/aoms/1177692622
   Skorohod A. V., 1956, THEOR PROBAB APPL, V1, P261, DOI DOI 10.1137/1101022
NR 12
TC 44
Z9 44
U1 0
U2 0
PU INST MATHEMATICAL STATISTICS
PI CLEVELAND
PA 3163 SOMERSET DR, CLEVELAND, OH 44122 USA
SN 0003-4851
J9 ANN MATH STAT
JI Ann. Math. Stat.
PY 1972
VL 43
IS 4
BP 1122
EP +
DI 10.1214/aoms/1177692465
PG 1
WC Mathematics; Statistics & Probability
SC Mathematics
GA N4288
UT WOS:A1972N428800008
ER

PT J
AU HOLLANDER, M
   PROSCHAN, F
AF HOLLANDER, M
   PROSCHAN, F
TI TESTING WHETHER NEW IS BETTER THAN USED
SO ANNALS OF MATHEMATICAL STATISTICS
LA English
DT Article
CR BARLOW RE, 1963, ANN MATH STAT, V34, P375, DOI 10.1214/aoms/1177704147
   BARLOW RE, 1968, ANN MATH STAT, V39, P547, DOI 10.1214/aoms/1177698416
   BARLOW RE, 1969, ANN MATH STAT, V40, P595, DOI 10.1214/aoms/1177697727
   BARLOW RE, 1970, ORC7022 U CAL REP
   Barlow R.E, 1965, MATHEMATICAL THEORY
   BICKEL PJ, 1969, ANN MATH STAT, V40, P1250, DOI 10.1214/aoms/1177697500
   BICKEL PJ, 1969, ANN MATH STAT, V40, P1216, DOI 10.1214/aoms/1177697498
   BIRNBAUM ZW, 1966, ANN MATH STAT, V37, P816, DOI 10.1214/aoms/1177699362
   Brand L., 1966, DIFFERENTIAL DIFFERE
   BRYSON MC, 1969, J AM STAT ASSOC, V64, P1472, DOI 10.2307/2286084
   Epstein B., 1960, TECHNOMETRICS, V2, P167, DOI DOI 10.1080/00401706.1960.10489892
   Epstein B., 1960, TECHNOMETRICS, V2, P83, DOI 10.2307/1266533
   ESARY JD, 1970, SIAM J APPL MATH, V18, P849, DOI 10.1137/0118077
   ESARY JD, 1970, M194 FLOR STAT U STA
   HOEFFDING W, 1948, ANN MATH STAT, V19, P293, DOI 10.1214/aoms/1177730196
   MARSHALL AW, TO BE PUBLISHED
   PROSCHAN F, 1967, 5TH P BERK S, V3, P293
NR 17
TC 92
Z9 94
U1 0
U2 0
PU INST MATHEMATICAL STATISTICS
PI CLEVELAND
PA 3163 SOMERSET DR, CLEVELAND, OH 44122 USA
SN 0003-4851
J9 ANN MATH STAT
JI Ann. Math. Stat.
PY 1972
VL 43
IS 4
BP 1136
EP +
DI 10.1214/aoms/1177692466
PG 1
WC Mathematics; Statistics & Probability
SC Mathematics
GA N4288
UT WOS:A1972N428800009
ER

PT J
AU STARR, N
   WOODROOF.M
AF STARR, N
   WOODROOF.M
TI FURTHER REMARKS ON SEQUENTIAL ESTIMATION - EXPONENTIAL CASE
SO ANNALS OF MATHEMATICAL STATISTICS
LA English
DT Article
CR ANSCOMBE FJ, 1952, P CAMB PHILOS SOC, V48, P600
   CHOW YS, 1965, ANN MATH STAT, V36, P789, DOI 10.1214/aoms/1177700053
   CHOW YS, 1965, ANN MATH STAT, V36, P457, DOI 10.1214/aoms/1177700156
   Robbins H., 1959, PROBABILITY STATISTI, P235
   STARR N, 1969, P NATL ACAD SCI USA, V63, P285, DOI 10.1073/pnas.63.2.285
   STARR N, 1966, ANN MATH STAT, V37, P1173, DOI 10.1214/aoms/1177699263
   STARR N, 1968, P NATL ACAD SCI USA, V61, P1215, DOI 10.1073/pnas.61.4.1215
NR 7
TC 48
Z9 48
U1 0
U2 0
PU INST MATHEMATICAL STATISTICS
PI HAYWARD
PA IMS BUSINESS OFFICE-SUITE 7, 3401 INVESTMENT BLVD, HAYWARD, CA 94545
SN 0003-4851
J9 ANN MATH STAT
PY 1972
VL 43
IS 4
BP 1147
EP &
DI 10.1214/aoms/1177692467
PG 0
WC Mathematics; Statistics & Probability
SC Mathematics
GA N4288
UT WOS:A1972N428800010
ER

PT J
AU MEHRA, KL
AF MEHRA, KL
TI BAHADUR EFFICIENCY OF JOINT-RANKING PROCEDURE
SO ANNALS OF MATHEMATICAL STATISTICS
LA English
DT Article
CR BAHADUR RR, 1960, ANN MATH STAT, V31, P276, DOI 10.1214/aoms/1177705894
   CHERNOFF H, 1958, ANN MATH STAT, V29, P972, DOI 10.1214/aoms/1177706436
   Cramer H., 1946, MATHEMATICAL METHODS
   HAJEK J, 1961, ANN MATH STAT, V32, P506, DOI 10.1214/aoms/1177705057
   HODGES JL, 1961, 4TH P BERK S MATH ST, P307
   Mann HB, 1943, ANN MATH STAT, V14, P217, DOI 10.1214/aoms/1177731415
   MEHRA KL, 1967, ANN MATH STAT, V38, P523, DOI 10.1214/aoms/1177698969
   MEHRA KL, 1963, ANN STATIST, V35, P122
   PURI ML, 1969, ANN I STAT MATH, V21, P163, DOI 10.1007/BF02532240
   WITTING H, 1960, ANN MATH ST, V33, P405
NR 10
TC 0
Z9 0
U1 0
U2 0
PU INST MATHEMATICAL STATISTICS
PI HAYWARD
PA IMS BUSINESS OFFICE-SUITE 7, 3401 INVESTMENT BLVD, HAYWARD, CA 94545
SN 0003-4851
J9 ANN MATH STAT
PY 1972
VL 43
IS 4
BP 1155
EP &
DI 10.1214/aoms/1177692468
PG 0
WC Mathematics; Statistics & Probability
SC Mathematics
GA N4288
UT WOS:A1972N428800011
ER

PT J
AU OATEN, A
AF OATEN, A
TI APPROXIMATION TO BAYES RISK IN COMPOUND DECISION PROBLEMS
SO ANNALS OF MATHEMATICAL STATISTICS
LA English
DT Article
CR DEELY JJ, 1968, ANN MATH STAT, V39, P286, DOI 10.1214/aoms/1177698536
   FOX RJ, 1970, ANN MATH STAT, V41, P1845, DOI 10.1214/aoms/1177696685
   GILLILAND DC, 1968, ANN MATH STAT, V39, P1890, DOI 10.1214/aoms/1177698019
   HANNAN J, 1972, ANN MATH STAT, V43, P102, DOI 10.1214/aoms/1177692706
   HANNAN J, 1972, ANN MATH STAT, V43, P308, DOI 10.1214/aoms/1177692724
   HANNAN JF, 1965, ANN MATH STAT, V36, P1743, DOI 10.1214/aoms/1177699802
   HANNAN JF, 1955, ANN MATH STAT, V26, P37, DOI 10.1214/aoms/1177728591
   HORN SD, 1968, 10 STANF U DEP STAT
   OATEN A, 1969, RM233 MICH STAT U DE
   RAO RR, 1962, ANN MATH STAT, V33, P659, DOI 10.1214/aoms/1177704588
   ROBBINS H, 1964, ANN MATH STAT, V35, P1, DOI 10.1214/aoms/1177703729
   ROBBINS H, 1951, 2ND P BERK S MATH ST, P131
   SAMUEL E, 1963, ANN MATH STAT, V34, P1079, DOI 10.1214/aoms/1177704032
   VANRYZIN JR, 1966, ANN MATH STAT, V37, P412
NR 14
TC 6
Z9 6
U1 0
U2 0
PU INST MATHEMATICAL STATISTICS
PI HAYWARD
PA IMS BUSINESS OFFICE-SUITE 7, 3401 INVESTMENT BLVD, HAYWARD, CA 94545
SN 0003-4851
J9 ANN MATH STAT
PY 1972
VL 43
IS 4
BP 1164
EP &
DI 10.1214/aoms/1177692469
PG 0
WC Mathematics; Statistics & Probability
SC Mathematics
GA N4288
UT WOS:A1972N428800012
ER

PT J
AU HAAN, LD
   HORDIJK, A
AF HAAN, LD
   HORDIJK, A
TI RATE OF GROWTH OF SAMPLE MAXIMA
SO ANNALS OF MATHEMATICAL STATISTICS
LA English
DT Article
CR BARNDORFFNIELSE.O, 1963, ANN MATH STAT, V34, P992, DOI 10.1214/aoms/1177704022
   Geffroy J., 1958, PUBL I STAT U PARIS, V7, P37
   HAAN LD, 1970, REGULAR VARIATION IT
   MISES RV, 1936, SELECTED PAPERS 2
   PICKANDS J, 1967, ANN MATH STAT, V38, P1570
   ROBBINS H, 1970, 6 P BERK S MATH STAT
NR 6
TC 1
Z9 1
U1 0
U2 0
PU INST MATHEMATICAL STATISTICS
PI HAYWARD
PA IMS BUSINESS OFFICE-SUITE 7, 3401 INVESTMENT BLVD, HAYWARD, CA 94545
SN 0003-4851
J9 ANN MATH STAT
PY 1972
VL 43
IS 4
BP 1185
EP &
PG 0
WC Mathematics; Statistics & Probability
SC Mathematics
GA N4288
UT WOS:A1972N428800013
ER

PT J
AU ANDEL, J
AF ANDEL, J
TI SYMMETRIC AND REVERSED MULTIPLE STATIONARY AUTOREGRESSIVE SERIES
SO ANNALS OF MATHEMATICAL STATISTICS
LA English
DT Article
CR ANDEL J, 1971, ANN MATH STAT, V42, P755, DOI 10.1214/aoms/1177693425
   ARATO M, 1961, THEORY PROBABILITY I, V6, P199, DOI 10.1137/1106024
   BARTLETT MS, 1953, J ROY STAT SOC B, V15, P107
   Bartlett M. S., 1955, INTRO STOCHASTIC PRO
   HANNAN EJ, 1969, BIOMETRIKA, V56, P223, DOI 10.2307/2334711
   Rao C.R, 1965, LINEAR STATISTICAL I
   WHITTLE P, 1953, J ROY STAT SOC B, V15, P125
NR 7
TC 1
Z9 1
U1 0
U2 0
PU INST MATHEMATICAL STATISTICS
PI HAYWARD
PA IMS BUSINESS OFFICE-SUITE 7, 3401 INVESTMENT BLVD, HAYWARD, CA 94545
SN 0003-4851
J9 ANN MATH STAT
PY 1972
VL 43
IS 4
BP 1197
EP &
DI 10.1214/aoms/1177692471
PG 0
WC Mathematics; Statistics & Probability
SC Mathematics
GA N4288
UT WOS:A1972N428800014
ER

PT J
AU ROSENKRANTZ, W
   OREILLY, NE
AF ROSENKRANTZ, W
   OREILLY, NE
TI APPLICATION OF SKOROKHOD REPRESENTATION THEOREM TO RATES OF CONVERGENCE
   FOR LINEAR COMBINATIONS OF ORDER STATISTICS
SO ANNALS OF MATHEMATICAL STATISTICS
LA English
DT Article
CR Breiman L., 1968, PROBABILITY
   PYKE R, 1967, D1820747 BOEING SCI
   ROSENKRANTZ WA, 1969, T AM MATH SOC, V139, P329, DOI 10.2307/1995326
   ROSENKRANTZ WA, 1967, T AM MATH SOC, V129, P542, DOI 10.2307/1994607
   SHORACK GR, 1969, ANN MATH STAT, V40, P2041, DOI 10.1214/aoms/1177697284
NR 5
TC 5
Z9 5
U1 0
U2 0
PU INST MATHEMATICAL STATISTICS
PI CLEVELAND
PA 3163 SOMERSET DR, CLEVELAND, OH 44122 USA
SN 0003-4851
J9 ANN MATH STAT
JI Ann. Math. Stat.
PY 1972
VL 43
IS 4
BP 1204
EP +
DI 10.1214/aoms/1177692472
PG 1
WC Mathematics; Statistics & Probability
SC Mathematics
GA N4288
UT WOS:A1972N428800015
ER

PT J
AU MONROE, I
AF MONROE, I
TI GAMMA-VARIATION OF PROCESSES WITH STATIONARY INDEPENDENT INCREMENTS
SO ANNALS OF MATHEMATICAL STATISTICS
LA English
DT Article
CR BLUMENTHAL RM, 1961, J MATH MECH, V10, P493
   Blumenthal R.M., 1968, MARKOV PROCESSES POT
   Blumenthal R.M., 1960, T AM MATH SOC, V95, P263, DOI 10.2307/1993291
   GREENWOOD PE, 1969, Z WAHRSCHEINLICHKEIT, V14, P140, DOI 10.1007/BF00537519
   MILLAR PW, 1971, Z WAHRSCHEINLICHKEIT, V17, P53, DOI 10.1007/BF00538475
   MONROE I, 1972, ANN MATH ST, V43
NR 6
TC 12
Z9 12
U1 0
U2 0
PU INST MATHEMATICAL STATISTICS
PI HAYWARD
PA IMS BUSINESS OFFICE-SUITE 7, 3401 INVESTMENT BLVD, HAYWARD, CA 94545
SN 0003-4851
J9 ANN MATH STAT
PY 1972
VL 43
IS 4
BP 1213
EP &
DI 10.1214/aoms/1177692473
PG 0
WC Mathematics; Statistics & Probability
SC Mathematics
GA N4288
UT WOS:A1972N428800016
ER

PT J
AU BOOK, SA
AF BOOK, SA
TI LARGE DEVIATION PROBABILITIES FOR WEIGHTED SUMS
SO ANNALS OF MATHEMATICAL STATISTICS
LA English
DT Article
CR BAHADUR RR, 1960, ANN MATH STAT, V31, P1015, DOI 10.1214/aoms/1177705674
   BOOK SA, 1970, THESIS U OREGON
   BOOK SA, TO BE PUBLISHED
   CHERNOFF H, 1967, ANN MATH STAT, V38, P52, DOI 10.1214/aoms/1177699058
   CHERNOFF H, 1952, ANN MATH STAT, V23, P493, DOI 10.1214/aoms/1177729330
   Cramer H., 1970, RANDOM VARIABLES PRO
   FELLER W, 1969, Z WAHRSCHEINLICHKEIT, V14, P1, DOI 10.1007/BF00534113
   FELLER W, 1968, P NATL ACAD SCI USA, V61, P1224, DOI 10.1073/pnas.61.4.1224
   Renyi A., 1953, ACTA MATH ACAD SCI H, V4, P191, DOI DOI 10.1007/BF02127580
   SETHURAMAN J, 1964, ANN MATH STAT, V35, P1304, DOI 10.1214/aoms/1177703286
   SETHURAMAN J, 1970, SN ROY MEMORIAL VOLU, P655
   SIEVERS GL, 1969, ANN MATH STAT, V40, P1908, DOI 10.1214/aoms/1177697275
   STONE M, 1969, PROC CAMB PHILOS S-M, V66, P587
NR 13
TC 8
Z9 8
U1 0
U2 0
PU INST MATHEMATICAL STATISTICS
PI HAYWARD
PA IMS BUSINESS OFFICE-SUITE 7, 3401 INVESTMENT BLVD, HAYWARD, CA 94545
SN 0003-4851
J9 ANN MATH STAT
PY 1972
VL 43
IS 4
BP 1221
EP &
DI 10.1214/aoms/1177692474
PG 0
WC Mathematics; Statistics & Probability
SC Mathematics
GA N4288
UT WOS:A1972N428800017
ER

PT J
AU ZIMMERMA.GJ
AF ZIMMERMA.GJ
TI SOME SAMPLE FUNCTION PROPERTIES OF 2-PARAMETER GAUSSIAN PROCESS
SO ANNALS OF MATHEMATICAL STATISTICS
LA English
DT Article
CR Baxter G, 1956, P AM MATH SOC, V7, P522, DOI 10.2307/2032765
   BERMAN SM, 1965, T AM MATH SOC, V119, P216, DOI 10.2307/1994048
   Cencov N.N., 1956, DOKL AKAD NAUK SSSR, V106, P607
   CIESIELSKI Z, 1966, LECTURES BROWNIAN MO
   DELPORTE J, 1966, Z WAHRSCHEINLICHKEIT, V6, P181, DOI 10.1007/BF00531803
   Doob J. L., 1953, STOCHASTIC PROCESSES
   Ito K, 1965, DIFFUSION PROCESSES
   Ito K., 1944, P IMP ACAD TOKYO, V20, P519, DOI DOI 10.3792/PIA/1195572786
   Levy P., 1965, PROCESSUS STOCHASTIQ
   Loeve M., 1963, PROBABILITY THEORY
   PARK WJ, 1970, ANN MATH STAT, V41, P1582, DOI 10.1214/aoms/1177696802
   Yeh J., 1960, T AM MATH SOC, V95, P433, DOI 10.2307/1993566
NR 12
TC 40
Z9 41
U1 0
U2 0
PU INST MATHEMATICAL STATISTICS
PI HAYWARD
PA IMS BUSINESS OFFICE-SUITE 7, 3401 INVESTMENT BLVD, HAYWARD, CA 94545
SN 0003-4851
J9 ANN MATH STAT
PY 1972
VL 43
IS 4
BP 1235
EP &
DI 10.1214/aoms/1177692475
PG 0
WC Mathematics; Statistics & Probability
SC Mathematics
GA N4288
UT WOS:A1972N428800018
ER

PT J
AU BERMAN, SM
AF BERMAN, SM
TI MAXIMUM AND HIGH LEVEL EXCURSION OF A GAUSSIAN PROCESS WITH STATIONARY
   INCREMENTS
SO ANNALS OF MATHEMATICAL STATISTICS
LA English
DT Article
CR BERMAN SM, 1971, T AM MATH SOC, V160, P65, DOI 10.2307/1995791
   BERMAN SM, 1971, PAC J MATH, V36, P63
   BERMAN SM, 1972, Z WAHRSCHEINLICHKEIT, V21, P121, DOI 10.1007/BF00532469
   Cramer H, 1967, STATIONARY RELATED S
   Doob J.L., 1953, STOCHASTIC PROCESSES
   FERNIQUE X, 1964, CR HEBD ACAD SCI, V258, P6058
   SLEPIAN D, 1962, BELL SYST TECH J, V41, P463
NR 7
TC 10
Z9 10
U1 0
U2 0
PU INST MATHEMATICAL STATISTICS
PI CLEVELAND
PA 3163 SOMERSET DR, CLEVELAND, OH 44122 USA
SN 0003-4851
J9 ANN MATH STAT
JI Ann. Math. Stat.
PY 1972
VL 43
IS 4
BP 1247
EP +
DI 10.1214/aoms/1177692476
PG 1
WC Mathematics; Statistics & Probability
SC Mathematics
GA N4288
UT WOS:A1972N428800019
ER

PT J
AU TAYLOR, RL
AF TAYLOR, RL
TI WEAK LAWS OF LARGE NUMBERS IN NORMED LINEAR SPACES
SO ANNALS OF MATHEMATICAL STATISTICS
LA English
DT Article
CR Beck A., 1963, ERGODIC THEORY, P21
   BECK A, 1968, MRC848 U WISC TECHN
   Doob J. L., 1953, STOCHASTIC PROCESSES
   Grenander U., 1963, PROBABILITIES ALGEBR
   HANS O, 1957, 1ST T PRAG C INF THE, P61
   Horvath J., 1966, TOPOLOGICAL VECTOR S, V1
   Loeve M., 1963, PROBABILITY THEORY
   Mann HB, 1951, SANKHYA, V11, P3
   Marti JT, 1969, INTRO THEORY BASES
   MOURIER E, 1953, ANN I H POINCARE, V13, P159
   Pettis BJ, 1938, T AM MATH SOC, V44, P277
   WALSH JB, 1967, P AM MATH SOC, V18, P129, DOI 10.2307/2035239
   WILANSKY A, 1964, FUNCTIONAL ANALYSIS
NR 13
TC 9
Z9 9
U1 0
U2 0
PU INST MATHEMATICAL STATISTICS
PI HAYWARD
PA IMS BUSINESS OFFICE-SUITE 7, 3401 INVESTMENT BLVD, HAYWARD, CA 94545
SN 0003-4851
J9 ANN MATH STAT
PY 1972
VL 43
IS 4
BP 1267
EP &
DI 10.1214/aoms/1177692477
PG 0
WC Mathematics; Statistics & Probability
SC Mathematics
GA N4288
UT WOS:A1972N428800020
ER

PT J
AU MILLER, DR
AF MILLER, DR
TI EXISTENCE OF LIMITS IN REGENERATIVE PROCESSES
SO ANNALS OF MATHEMATICAL STATISTICS
LA English
DT Article
CR Billingsley P., 1968, CONVERGENCE PROBABIL
   DOOB JL, 1948, T AM MATH SOC, V63, P422, DOI 10.2307/1990567
   FELLER W., 1966, INTRO PROBABILITY TH, VII
   MILLER DR, 1971, LIMIT THEOREMS FUNCT
   SMITH WL, 1955, PROC R SOC LON SER-A, V232, P6, DOI 10.1098/rspa.1955.0198
   SMITH WL, 1958, J ROY STAT SOC B, V20, P243
   Takacs L., 1963, SANKHYA            A, V25, P91
NR 7
TC 37
Z9 37
U1 0
U2 0
PU INST MATHEMATICAL STATISTICS
PI HAYWARD
PA IMS BUSINESS OFFICE-SUITE 7, 3401 INVESTMENT BLVD, HAYWARD, CA 94545
SN 0003-4851
J9 ANN MATH STAT
PY 1972
VL 43
IS 4
BP 1275
EP &
DI 10.1214/aoms/1177692478
PG 0
WC Mathematics; Statistics & Probability
SC Mathematics
GA N4288
UT WOS:A1972N428800021
ER

PT J
AU COHN, H
AF COHN, H
TI LIMIT THEOREMS FOR SUMS OF RANDOM-VARIABLES DEFINED ON FINITE
   INHOMOGENEOUS MARKOV CHAINS
SO ANNALS OF MATHEMATICAL STATISTICS
LA English
DT Article
CR COHN H, 1970, ANN MATH STAT, V41, P2175, DOI 10.1214/aoms/1177696725
   Cohn H., 1965, REV ROUM MATH PURE A, V10, P1593
   Dobrushin R. L., 1956, THEOR PROBAB APPL, V1, P329, DOI 10.1137/1101029
   Dobrushin RL, 1956, THEOR PROBAB APPL, V1, P65, DOI 10.1137/1101006
   DYNKIN EB, 1954, UKRAINIAN MATH J, V6, P21
   Hajek J., 1955, ACTA MATH ACAD SCI H, V6, P281, DOI 10.1007/BF02024392
   IBRAGIMOV IA, 1972, INDEPENDENT STATIONA
   Iosifescu M, 1969, RANDOM PROCESSES LEA
   Marcinkiewicz J., 1937, FUND MATH, V29, P60
NR 9
TC 3
Z9 3
U1 0
U2 0
PU INST MATHEMATICAL STATISTICS
PI HAYWARD
PA IMS BUSINESS OFFICE-SUITE 7, 3401 INVESTMENT BLVD, HAYWARD, CA 94545
SN 0003-4851
J9 ANN MATH STAT
PY 1972
VL 43
IS 4
BP 1283
EP &
DI 10.1214/aoms/1177692479
PG 0
WC Mathematics; Statistics & Probability
SC Mathematics
GA N4288
UT WOS:A1972N428800022
ER

PT J
AU MONROE, I
AF MONROE, I
TI EMBEDDING RIGHT CONTINUOUS MARTINGALES IN BROWNIAN MOTION
SO ANNALS OF MATHEMATICAL STATISTICS
LA English
DT Article
CR Blumenthal R.M., 1968, MARKOV PROCESSES POT
   CLARK JMC, 1970, ANN MATH STAT, V41, P1282, DOI 10.1214/aoms/1177696903
   DAMBIS KE, 1965, THEOR PROBAB APPL+, V10, P401, DOI 10.1137/1110048
   DUBINS LE, 1968, ANN MATH STAT, V39, P2094, DOI 10.1214/aoms/1177698036
   DUBINS LE, 1965, P NATL ACAD SCI USA, V53, P913, DOI 10.1073/pnas.53.5.913
   FELLER W., 1966, INTRO PROBABILITY TH, VII
   ROOT HD, 1969, ANN MATH STATISTICS, V40, P715
   Skorokhod A. V., 1965, STUDIES THEORY RANDO
   WHITT W, 1970, ANN MATH STAT, V41, P939, DOI 10.1214/aoms/1177696970
NR 9
TC 46
Z9 46
U1 0
U2 0
PU INST MATHEMATICAL STATISTICS
PI HAYWARD
PA IMS BUSINESS OFFICE-SUITE 7, 3401 INVESTMENT BLVD, HAYWARD, CA 94545
SN 0003-4851
J9 ANN MATH STAT
PY 1972
VL 43
IS 4
BP 1293
EP &
DI 10.1214/aoms/1177692480
PG 0
WC Mathematics; Statistics & Probability
SC Mathematics
GA N4288
UT WOS:A1972N428800023
ER

PT J
AU SUGIURA, N
AF SUGIURA, N
TI LOCALLY BEST INVARIANT TEST FOR SPHERICITY AND LIMITING DISTRIBUTIONS
SO ANNALS OF MATHEMATICAL STATISTICS
LA English
DT Note
CR CONSTANTINE AG, 1963, ANN MATH STAT, V34, P1270, DOI 10.1214/aoms/1177703863
   Fujikoshi Y., 1970, J SCI HIROSHIMA U A1, V34, P73
   GIRI N, 1968, ANN MATH STAT, V39, P275, DOI 10.1214/aoms/1177698533
   JAMES AT, 1964, ANN MATH STAT, V35, P475, DOI 10.1214/aoms/1177703550
   JAMES AT, 1960, ANN MATH STAT, V31, P151, DOI 10.1214/aoms/1177705994
   JOHN S, 1971, BIOMETRIKA, V58, P123, DOI 10.2307/2334322
   NAGAO H, 1970, J SCI HIROSHIMA U A1, V34, P153
   PILLAI KCS, 1969, ANN MATH STAT, V40, P2033, DOI 10.1214/aoms/1177697283
   SCHWARTZ RE, 1967, ANN MATH STAT, V38, P340, DOI 10.1214/aoms/1177698951
   SUGIURA N, 1969, ANN MATH STAT, V40, P2051, DOI 10.1214/aoms/1177697285
NR 10
TC 32
Z9 32
U1 0
U2 0
PU INST MATHEMATICAL STATISTICS
PI HAYWARD
PA IMS BUSINESS OFFICE-SUITE 7, 3401 INVESTMENT BLVD, HAYWARD, CA 94545
SN 0003-4851
J9 ANN MATH STAT
PY 1972
VL 43
IS 4
BP 1312
EP &
DI 10.1214/aoms/1177692481
PG 0
WC Mathematics; Statistics & Probability
SC Mathematics
GA N4288
UT WOS:A1972N428800024
ER

PT J
AU OBENCHAIN, RL
AF OBENCHAIN, RL
TI REGRESSION OPTIMALITY OF PRINCIPAL COMPONENTS
SO ANNALS OF MATHEMATICAL STATISTICS
LA English
DT Note
CR Okamoto M., 1969, MULTIVARIATE ANAL, P673
NR 1
TC 3
Z9 3
U1 0
U2 1
PU INST MATHEMATICAL STATISTICS
PI CLEVELAND
PA 3163 SOMERSET DR, CLEVELAND, OH 44122 USA
SN 0003-4851
J9 ANN MATH STAT
JI Ann. Math. Stat.
PY 1972
VL 43
IS 4
BP 1317
EP +
DI 10.1214/aoms/1177692482
PG 1
WC Mathematics; Statistics & Probability
SC Mathematics
GA N4288
UT WOS:A1972N428800025
ER

PT J
AU DENNY, JL
AF DENNY, JL
TI SUFFICIENT STATISTICS AND DISCRETE EXPONENTIAL FAMILIES
SO ANNALS OF MATHEMATICAL STATISTICS
LA English
DT Note
CR BROWN L, 1964, ANN MATH STAT, V35, P1456, DOI 10.1214/aoms/1177700373
   DENNY JL, 1967, P NATL ACAD SCI USA, V57, P1184, DOI 10.1073/pnas.57.5.1184
   DENNY JL, 1969, ANN MATH ST, V40, P1479
   DYNKIN EB, 1951, SELECTED TRANSLATION, V1, P23
NR 4
TC 2
Z9 2
U1 1
U2 1
PU INST MATHEMATICAL STATISTICS
PI HAYWARD
PA IMS BUSINESS OFFICE-SUITE 7, 3401 INVESTMENT BLVD, HAYWARD, CA 94545
SN 0003-4851
J9 ANN MATH STAT
PY 1972
VL 43
IS 4
BP 1320
EP &
DI 10.1214/aoms/1177692483
PG 0
WC Mathematics; Statistics & Probability
SC Mathematics
GA N4288
UT WOS:A1972N428800026
ER

PT J
AU JOSHI, VM
AF JOSHI, VM
TI HYPERADMISSIBILITY OF ESTIMATORS FOR FINITE POPULATIONS
SO ANNALS OF MATHEMATICAL STATISTICS
LA English
DT Note
CR HANURAV TV, 1968, ANN MATH STAT, V39, P621, DOI 10.1214/aoms/1177698422
   JOSHI VM, 1971, ANN MATH STAT, V42, P680, DOI 10.1214/aoms/1177693417
NR 2
TC 0
Z9 0
U1 0
U2 0
PU INST MATHEMATICAL STATISTICS
PI HAYWARD
PA IMS BUSINESS OFFICE-SUITE 7, 3401 INVESTMENT BLVD, HAYWARD, CA 94545
SN 0003-4851
J9 ANN MATH STAT
PY 1972
VL 43
IS 4
BP 1323
EP &
DI 10.1214/aoms/1177692484
PG 0
WC Mathematics; Statistics & Probability
SC Mathematics
GA N4288
UT WOS:A1972N428800027
ER

PT J
AU LANKE, J
AF LANKE, J
TI SAMPLING DISTINGUISHABLE ELEMENTS WITH REPLACEMENT
SO ANNALS OF MATHEMATICAL STATISTICS
LA English
DT Note
CR Basu D., 1958, SANKHYA, V20A, P287
   KORWAR RM, 1970, ANN MATH STAT, V41, P2132, DOI 10.1214/aoms/1177696713
   PATHAK PK, 1961, SANKHYA A, V23, P415
   RAJ D, 1958, ANN MATH STAT, V29, P550, DOI 10.1214/aoms/1177706630
   THIONET P, 1967, REVUE STATISTIQUE AP, V15, P35
   VALEMBOIS J, 1971, REVUE STATISTIQUE AP, V19, P87
NR 6
TC 2
Z9 2
U1 0
U2 0
PU INST MATHEMATICAL STATISTICS
PI HAYWARD
PA IMS BUSINESS OFFICE-SUITE 7, 3401 INVESTMENT BLVD, HAYWARD, CA 94545
SN 0003-4851
J9 ANN MATH STAT
PY 1972
VL 43
IS 4
BP 1329
EP &
DI 10.1214/aoms/1177692485
PG 0
WC Mathematics; Statistics & Probability
SC Mathematics
GA N4288
UT WOS:A1972N428800028
ER

PT J
AU ANDERSON, DA
AF ANDERSON, DA
TI DESIGNS WITH PARTIAL FACTORIAL BALANCE
SO ANNALS OF MATHEMATICAL STATISTICS
LA English
DT Note
CR BOSE RC, 1959, ANN MATH STAT, V30, P21, DOI 10.1214/aoms/1177706356
   Bose R. C., 1964, SANKHYA A, V26, P145
   BRUNER ER, 1967, THESIS U WYOMING
   David H. A., 1965, ANN MATH STAT, V36, P1526, DOI 10.1214/aoms/1177699912
   PEARCE SC, 1963, J R STAT SOC SER A-G, V126, P353, DOI 10.2307/2982222
   POTTHOFF RF, 1962, TECHNOMETRICS, V4, P187, DOI 10.2307/1266618
   POTTHOFF RF, 1962, TECHNOMETRICS, V4, P361, DOI 10.2307/1266573
   SHRIKHANDE SS, 1951, ANN MATH STAT, V22, P235, DOI 10.1214/aoms/1177729643
   SRIVASTAVA JN, 1971, ANN MATH STAT, V42, P1167, DOI 10.1214/aoms/1177693233
   SRIVASTAVA JN, 1970, ANN MATH STAT, V41, P1438, DOI 10.1214/aoms/1177696789
   SRIVASTAVA JN, 1961, 301 U N CAR I STAT M
NR 11
TC 5
Z9 5
U1 0
U2 0
PU INST MATHEMATICAL STATISTICS
PI HAYWARD
PA IMS BUSINESS OFFICE-SUITE 7, 3401 INVESTMENT BLVD, HAYWARD, CA 94545
SN 0003-4851
J9 ANN MATH STAT
PY 1972
VL 43
IS 4
BP 1333
EP &
DI 10.1214/aoms/1177692486
PG 0
WC Mathematics; Statistics & Probability
SC Mathematics
GA N4288
UT WOS:A1972N428800029
ER

PT J
AU KULSHRESHTHA, AC
   DEY, A
   SAHA, GM
AF KULSHRESHTHA, AC
   DEY, A
   SAHA, GM
TI BALANCED DESIGNS WITH UNEQUAL REPLICATIONS AND UNEQUAL BLOCK SIZES
SO ANNALS OF MATHEMATICAL STATISTICS
LA English
DT Note
CR ATIQULLAH M, 1961, BIOMETRIKA, V48, P215, DOI 10.2307/2333151
   DAS MN, 1968, J INDIAN STAT ASSOC, V6, P137
   DEY A, 1970, ANN I STAT MATH, V22, P389, DOI 10.1007/BF02506352
   GRAYBILL FA, 1961, INTRO LINEAR STATIST, V1
   HANANI H, 1961, ANN MATH STAT, V32, P361, DOI 10.1214/aoms/1177705047
   JOHN PWM, 1964, ANN MATH STAT, V35, P897, DOI 10.1214/aoms/1177703597
   MURTY JS, 1967, J INDIAN STATIST ASS, V5, P73
   RAO VR, 1958, ANN MATH STAT, V29, P290, DOI 10.1214/aoms/1177706729
   TOCHER KD, 1952, J ROY STAT SOC B, V14, P45
NR 9
TC 10
Z9 10
U1 0
U2 0
PU INST MATHEMATICAL STATISTICS
PI CLEVELAND
PA 3163 SOMERSET DR, CLEVELAND, OH 44122 USA
SN 0003-4851
J9 ANN MATH STAT
JI Ann. Math. Stat.
PY 1972
VL 43
IS 4
BP 1342
EP +
DI 10.1214/aoms/1177692487
PG 1
WC Mathematics; Statistics & Probability
SC Mathematics
GA N4288
UT WOS:A1972N428800030
ER

PT J
AU PAIK, UB
   FEDERER, WT
AF PAIK, UB
   FEDERER, WT
TI RANDOMIZED PROCEDURE FOR SATURATED FRACTIONAL REPLICATES IN A
   2N-FACTORIAL
SO ANNALS OF MATHEMATICAL STATISTICS
LA English
DT Note
CR BANERJEE KS, 1964, ANN MATH STAT, V35, P711, DOI 10.1214/aoms/1177703568
   EHRENFELD S, 1961, ANN MATH STAT, V32, P270, DOI 10.1214/aoms/1177705159
   EHRENFELD S, 1967, ANN MATH STAT, V38, P1494, DOI 10.1214/aoms/1177698704
   PAIK UB, 1970, ANN MATH STAT, V41, P369, DOI 10.1214/aoms/1177697077
   PAIK UB, 1970, 1029 US ARM U WISC M
   RAKTOE BL, 1971, ANN MATH STAT, V42, P1758, DOI 10.1214/aoms/1177693177
   ZACKS S, 1964, ANN MATH STAT, V35, P696, DOI 10.1214/aoms/1177703566
NR 7
TC 2
Z9 2
U1 0
U2 0
PU INST MATHEMATICAL STATISTICS
PI HAYWARD
PA IMS BUSINESS OFFICE-SUITE 7, 3401 INVESTMENT BLVD, HAYWARD, CA 94545
SN 0003-4851
J9 ANN MATH STAT
PY 1972
VL 43
IS 4
BP 1346
EP &
DI 10.1214/aoms/1177692488
PG 0
WC Mathematics; Statistics & Probability
SC Mathematics
GA N4288
UT WOS:A1972N428800031
ER

PT J
AU BALKEMA, AA
   HAAN, LD
AF BALKEMA, AA
   HAAN, LD
TI VONMISES, R CONDITION FOR DOMAIN OF ATTRACTION OF EXP (-E-CHI)
SO ANNALS OF MATHEMATICAL STATISTICS
LA English
DT Note
CR DEHAAN L, 1971, Z WAHRSCHEINLICHKEIT, V17, P241
   DE HAAN L., 1970, REGULAR VARIATION IT
   Gnedenko B, 1943, ANN MATH, V44, P423, DOI 10.2307/1968974
   Resnick S.I., 1971, J APPL PROBAB, V8, P136, DOI 10.2307/3211844
   VONMISSES R, 1936, SELECTED PAPERS, V2, P271
NR 5
TC 25
Z9 25
U1 0
U2 0
PU INST MATHEMATICAL STATISTICS
PI HAYWARD
PA IMS BUSINESS OFFICE-SUITE 7, 3401 INVESTMENT BLVD, HAYWARD, CA 94545
SN 0003-4851
J9 ANN MATH STAT
PY 1972
VL 43
IS 4
BP 1352
EP &
DI 10.1214/aoms/1177692489
PG 0
WC Mathematics; Statistics & Probability
SC Mathematics
GA N4288
UT WOS:A1972N428800032
ER

PT J
AU SEN, PK
AF SEN, PK
TI WEAK CONVERGENCE OF EXTREMAL PROCESSES FOR RANDOM SAMPLE SIZES
SO ANNALS OF MATHEMATICAL STATISTICS
LA English
DT Note
CR Barndorff-Nielsen O., 1964, ACTA MATH ACAD SCI H, V15, P399, DOI 10.1007/BF01897148
   BERMAN SM, 1962, ANN MATH STAT, V33, P894, DOI 10.1214/aoms/1177704458
   Billingsley P., 1968, CONVERGENCE PROBABIL
   Blum J.R., 1963, Z WAHRSCHEINLICHKEIT, V1, P389, DOI 10.1007/BF00533414
   DWASS M, 1964, ANN MATH STAT, V35, P1718, DOI 10.1214/aoms/1177700394
   Gnedenko B, 1943, ANN MATH, V44, P423, DOI 10.2307/1968974
   LAMPERTI J, 1964, ANN MATH STAT, V35, P1726, DOI 10.1214/aoms/1177700395
   LAMPERTI J, UNPUBLISHED
   MOGYORODI J, 1965, 4 T PRAG C PRAG, P463
   RENYI A., 1958, ACTA MATH ACAD SCI H, V9, P215, DOI 10.1007/BF02023873
NR 10
TC 3
Z9 3
U1 0
U2 0
PU INST MATHEMATICAL STATISTICS
PI HAYWARD
PA IMS BUSINESS OFFICE-SUITE 7, 3401 INVESTMENT BLVD, HAYWARD, CA 94545
SN 0003-4851
J9 ANN MATH STAT
PY 1972
VL 43
IS 4
BP 1355
EP &
DI 10.1214/aoms/1177692490
PG 0
WC Mathematics; Statistics & Probability
SC Mathematics
GA N4288
UT WOS:A1972N428800033
ER

PT J
AU DARLING, DA
   TAYLOR, HM
   LIGGETT, T
AF DARLING, DA
   TAYLOR, HM
   LIGGETT, T
TI OPTIMAL STOPPING FOR PARTIAL SUMS
SO ANNALS OF MATHEMATICAL STATISTICS
LA English
DT Note
CR Bachelier L., 1900, ANN SCI ECOLE NORM S, V3, P21
   BLACKWELL D, 1954, ANN MATH STAT, V25, P394, DOI 10.1214/aoms/1177728798
   Cootner P.H., 1964, RANDOM CHARACTER STO
   DUBINS LE, 1967, ANN MATH STAT, V38, P601, DOI 10.1214/aoms/1177698978
   Dubins Lester E., 1965, HOW GAMBLE YOU MUST
   DYNKIN EB, 1963, DOKL AKAD NAUK SSSR+, V150, P238
   Dynkin E. B., 1963, SOV MATH, V4, P627
   FELLER W., 1966, INTRO PROBABILITY TH, VII
   KIEFER J, 1956, ANN MATH STAT, V27, P147, DOI 10.1214/aoms/1177728354
   SAMUEL E, 1967, J APPL PROBAB, V4, P197, DOI 10.2307/3212312
   SAMUELSON PA, 1965, IMR-IND MANAG REV, V6, P13
NR 11
TC 30
Z9 31
U1 0
U2 0
PU INST MATHEMATICAL STATISTICS
PI HAYWARD
PA IMS BUSINESS OFFICE-SUITE 7, 3401 INVESTMENT BLVD, HAYWARD, CA 94545
SN 0003-4851
J9 ANN MATH STAT
PY 1972
VL 43
IS 4
BP 1363
EP &
DI 10.1214/aoms/1177692491
PG 0
WC Mathematics; Statistics & Probability
SC Mathematics
GA N4288
UT WOS:A1972N428800034
ER

PT J
AU NEVEU, J
AF NEVEU, J
TI TIGHTNESS OF METRIC ON SET OF COMPLETE SUB SIGMA-ALGEBRAS OF A
   PROBABILITY SPACE
SO ANNALS OF MATHEMATICAL STATISTICS
LA English
DT Note
CR BOYLAN ES, 1971, ANN MATH STAT, V42, P552, DOI 10.1214/aoms/1177693405
   NEVEU J, 1967, S PROBABILITY METHOD, V31, P256, DOI 10.1007/BFb0061122
NR 2
TC 17
Z9 17
U1 0
U2 0
PU INST MATHEMATICAL STATISTICS
PI HAYWARD
PA IMS BUSINESS OFFICE-SUITE 7, 3401 INVESTMENT BLVD, HAYWARD, CA 94545
SN 0003-4851
J9 ANN MATH STAT
PY 1972
VL 43
IS 4
BP 1369
EP &
DI 10.1214/aoms/1177692492
PG 0
WC Mathematics; Statistics & Probability
SC Mathematics
GA N4288
UT WOS:A1972N428800035
ER

PT J
AU LANDERS, D
   ROGGE, L
AF LANDERS, D
   ROGGE, L
TI SHORT PROOFS OF 2 CONVERGENCE THEOREMS FOR CONDITIONAL EXPECTATIONS
SO ANNALS OF MATHEMATICAL STATISTICS
LA English
DT Note
CR GANSSLER P, 1971, ANN MATH STAT, V42, P315, DOI 10.1214/aoms/1177693514
NR 1
TC 0
Z9 0
U1 0
U2 0
PU INST MATHEMATICAL STATISTICS
PI HAYWARD
PA IMS BUSINESS OFFICE-SUITE 7, 3401 INVESTMENT BLVD, HAYWARD, CA 94545
SN 0003-4851
J9 ANN MATH STAT
PY 1972
VL 43
IS 4
BP 1372
EP &
DI 10.1214/aoms/1177692493
PG 0
WC Mathematics; Statistics & Probability
SC Mathematics
GA N4288
UT WOS:A1972N428800036
ER

PT J
AU GILAT, D
AF GILAT, D
TI CONVERGENCE IN DISTRIBUTION, CONVERGENCE IN PROBABILITY AND ALMOST SURE
   CONVERGENCE OF DISCRETE MARTINGALES
SO ANNALS OF MATHEMATICAL STATISTICS
LA English
DT Note
CR GILAT D, 1971, ANN MATH STAT, V42, P1647, DOI 10.1214/aoms/1177693163
   GILAT D, 1970, THESIS U CALIFORNIA
   Levy P, 1937, THEORIE ADDITION VAR
   LOEVE M, 1964, STOCHASTIC PROCESSES
NR 4
TC 1
Z9 1
U1 0
U2 0
PU INST MATHEMATICAL STATISTICS
PI HAYWARD
PA IMS BUSINESS OFFICE-SUITE 7, 3401 INVESTMENT BLVD, HAYWARD, CA 94545
SN 0003-4851
J9 ANN MATH STAT
PY 1972
VL 43
IS 4
BP 1374
EP &
DI 10.1214/aoms/1177692494
PG 0
WC Mathematics; Statistics & Probability
SC Mathematics
GA N4288
UT WOS:A1972N428800037
ER

PT J
AU DICKEY, J
   LIENTZ, BP
AF DICKEY, J
   LIENTZ, BP
TI WEIGHTED LIKELIHOOD RATIO, SHARP HYPOTHESES ABOUT CHANCES, ORDER OF A
   MARKOV CHAIN
SO ANNALS OF MATHEMATICAL STATISTICS
LA English
DT Note
NR 0
TC 0
Z9 0
U1 0
U2 0
PU INST MATHEMATICAL STATISTICS
PI HAYWARD
PA IMS BUSINESS OFFICE-SUITE 7, 3401 INVESTMENT BLVD, HAYWARD, CA 94545
SN 0003-4851
J9 ANN MATH STAT
PY 1972
VL 43
IS 4
BP 1380
EP &
DI 10.1214/aoms/1177692496
PG 0
WC Mathematics; Statistics & Probability
SC Mathematics
GA N4288
UT WOS:A1972N428800039
ER

PT J
AU RAO, KPSB
   RAO, MB
AF RAO, KPSB
   RAO, MB
TI REMARK ON NONATOMIC MEASURES
SO ANNALS OF MATHEMATICAL STATISTICS
LA English
DT Note
NR 0
TC 1
Z9 1
U1 0
U2 0
PU INST MATHEMATICAL STATISTICS
PI HAYWARD
PA IMS BUSINESS OFFICE-SUITE 7, 3401 INVESTMENT BLVD, HAYWARD, CA 94545
SN 0003-4851
J9 ANN MATH STAT
PY 1972
VL 43
IS 4
BP 1380
EP &
DI 10.1214/aoms/1177692495
PG 0
WC Mathematics; Statistics & Probability
SC Mathematics
GA N4288
UT WOS:A1972N428800038
ER

PT J
AU TORGERSEN, EN
AF TORGERSEN, EN
TI COMPARISON OF TRANSLATION EXPERIMENTS
SO ANNALS OF MATHEMATICAL STATISTICS
LA English
DT Article
CR BLACKWELL D, 1951, 2 P BERK S MATH STAT
   Boll C., 1955, THESIS STANFORD U
   CHERNOFF H, 1952, ANN MATH STAT, V23, P493, DOI 10.1214/aoms/1177729330
   Day M. M., 1961, ILLINOIS J MATH, V5, P585
   Greenleaf F. P., 1969, INVARIANT MEANS TOPO
   HEYER H, 1970, PERSONAL COMMUNICATI
   KUDO H, 1955, NATL SCI REPORTS, V6, P31
   LECAM L, 1964, ANN MATH STAT, V35, P1419
   LECAM L, 1970, 6 P BERK S MATH STAT
   LEHMANN EL, 1959, TESTING STATISTICAL
   Parthasarathy K. R., 1967, PROBABILITY MEASURES
   SCHEFFE H, 1947, ANN MATH STAT, V18, P434, DOI 10.1214/aoms/1177730390
   STRASSEN V, 1965, ANN MATH STAT, V36, P423, DOI 10.1214/aoms/1177700153
   TORGERSE.EN, 1969, ANN MATH STAT, V40, P2219
   TORGERSE.EN, 1969, ANN MATH STAT, V40, P1155
   TORGERSE.EN, 1969, ANN MATH STAT, V40, P727
   TORGERSEN EN, 1970, Z WAHRSCHEINLICHKEIT, V16, P219, DOI 10.1007/BF00534598
NR 17
TC 17
Z9 17
U1 0
U2 0
PU INST MATHEMATICAL STATISTICS
PI CLEVELAND
PA 3163 SOMERSET DR, CLEVELAND, OH 44122 USA
SN 0003-4851
J9 ANN MATH STAT
JI Ann. Math. Stat.
PY 1972
VL 43
IS 5
BP 1383
EP +
DI 10.1214/aoms/1177692372
PG 1
WC Mathematics; Statistics & Probability
SC Mathematics
GA N9477
UT WOS:A1972N947700001
ER

PT J
AU SHORACK, GR
AF SHORACK, GR
TI CONVERGENCE OF QUANTILE AND SPACINGS PROCESSES WITH APPLICATIONS
SO ANNALS OF MATHEMATICAL STATISTICS
LA English
DT Article
CR BICKEL PJ, 1969, ANN MATH STAT, V40, P1250, DOI 10.1214/aoms/1177697500
   BICKEL PJ, 1969, ANN MATH STAT, V40, P1216, DOI 10.1214/aoms/1177697498
   BICKEL PJ, 1967, 5TH BERK S VOL, P575
   CHERNOFF H, 1967, ANN MATH STAT, V38, P52, DOI 10.1214/aoms/1177699058
   DARLING DA, 1953, ANN MATH STAT, V24, P239, DOI 10.1214/aoms/1177729030
   JACKSON OAY, 1967, J ROY STAT SOC B, V29, P540
   PYKE R, 1968, ANN MATH STAT, V39, P755, DOI 10.1214/aoms/1177698309
   PYKE R, 1965, J ROY STAT SOC B, V27, P395
   SHORACK GR, 1972, ANN MATH STAT, V43, P412, DOI 10.1214/aoms/1177692622
NR 9
TC 33
Z9 33
U1 0
U2 1
PU INST MATHEMATICAL STATISTICS
PI HAYWARD
PA IMS BUSINESS OFFICE-SUITE 7, 3401 INVESTMENT BLVD, HAYWARD, CA 94545
SN 0003-4851
J9 ANN MATH STAT
PY 1972
VL 43
IS 5
BP 1400
EP &
DI 10.1214/aoms/1177692373
PG 0
WC Mathematics; Statistics & Probability
SC Mathematics
GA N9477
UT WOS:A1972N947700002
ER

PT J
AU LORDEN, G
AF LORDEN, G
TI LIKELIHOOD RATIO TESTS FOR SEQUENTIAL K-DECISION PROBLEMS
SO ANNALS OF MATHEMATICAL STATISTICS
LA English
DT Article
CR FARRELL RH, 1964, ANN MATH STAT, V35, P1332, DOI 10.1214/aoms/1177703290
   HOEFFDING W, 1960, ANN MATH STAT, V31, P352, DOI 10.1214/aoms/1177705898
   HOEFFDING W, 1953, ANN MATH STAT, V24, P127, DOI 10.1214/aoms/1177729092
   KINGMAN JFC, 1962, BIOMETRIKA, V49, P315, DOI 10.2307/2333966
   LORDEN G, 1970, ANN MATH STAT, V41, P520, DOI 10.1214/aoms/1177697092
   LORDEN G, 1967, ANN MATH STAT, V38, P1399, DOI 10.1214/aoms/1177698696
   LORDEN G, TO BE PUBLISHED
   SCHWARZ G, 1962, ANN MATH STAT, V33, P224, DOI 10.1214/aoms/1177704726
   SCHWARZ G, 1969, ANN MATH STAT, V40, P313, DOI 10.1214/aoms/1177697828
   WALD A, 1947, SEQUENTIAL ANALYSIS
   WONG SP, 1968, ANN MATH STAT, V39, P1244, DOI 10.1214/aoms/1177698250
NR 11
TC 20
Z9 20
U1 0
U2 0
PU INST MATHEMATICAL STATISTICS
PI HAYWARD
PA IMS BUSINESS OFFICE-SUITE 7, 3401 INVESTMENT BLVD, HAYWARD, CA 94545
SN 0003-4851
J9 ANN MATH STAT
PY 1972
VL 43
IS 5
BP 1412
EP &
DI 10.1214/aoms/1177692374
PG 0
WC Mathematics; Statistics & Probability
SC Mathematics
GA N9477
UT WOS:A1972N947700003
ER

PT J
AU FELDMAN, D
AF FELDMAN, D
TI SOME PROPERTIES OF BAYESIAN ORDERINGS OF EXPERIMENTS
SO ANNALS OF MATHEMATICAL STATISTICS
LA English
DT Article
CR BLACKWELL D, 1953, ANN MATH STAT, V24, P265, DOI 10.1214/aoms/1177729032
   BLACKWELL D, 1951, 2 P BERK S MATH STAT
   BRADT RN, 1956, ANN MATH STAT, V27, P390, DOI 10.1214/aoms/1177728265
   CHERNOFF H, 1952, ANN MATH STAT, V23, P493, DOI 10.1214/aoms/1177729330
   DEGROOT MH, 1962, ANN MATH STAT, V33, P404, DOI 10.1214/aoms/1177704567
   Hardy G. H., 1952, INEQUALITIES
   LECAM L, 1964, ANN MATH STAT, V35, P1419
   LINDLEY DV, 1956, ANN MATH STAT, V27, P986, DOI 10.1214/aoms/1177728069
   SAKAGUCHI M, 1964, TOPICS INFORMATION D
   TORGERSEN E, 1968, THESIS U CALIFORNIA
NR 10
TC 5
Z9 5
U1 0
U2 0
PU INST MATHEMATICAL STATISTICS
PI HAYWARD
PA IMS BUSINESS OFFICE-SUITE 7, 3401 INVESTMENT BLVD, HAYWARD, CA 94545
SN 0003-4851
J9 ANN MATH STAT
PY 1972
VL 43
IS 5
BP 1428
EP &
DI 10.1214/aoms/1177692375
PG 0
WC Mathematics; Statistics & Probability
SC Mathematics
GA N9477
UT WOS:A1972N947700004
ER

PT J
AU FERTIG, KW
AF FERTIG, KW
TI BAYESIAN PRIOR DISTRIBUTIONS FOR SYSTEMS WITH EXPONENTIAL FAILURE-TIME
   DATA
SO ANNALS OF MATHEMATICAL STATISTICS
LA English
DT Article
CR Bateman H., 1954, TABLES INTEGRAL TRAN, VI
   BURNETT TL, 1961, 7 P NAT S REL QUAL C, P118
   ELMAWAZINY AH, 1965, THESIS IOWA STATE U
   EPSTEIN B, 1953, J AM STAT ASSOC, V48, P486, DOI 10.2307/2281004
   Ferguson T., 1967, MATHEMATICAL STATIST
   LEHMANN EL, 1959, TESTING STATISTICAL
   LENTNER MM, 1963, J AM STAT ASSOC, V58, P670, DOI 10.2307/2282715
   MANN NR, 1972, BIOMETRIKA, V59, P191
   MANN NR, 1970, NAV RES LOGIST Q, V17, P41, DOI 10.1002/nav.3800170104
   SPRINGER MD, 1968, TECHNOMETRICS, V10, P29, DOI 10.2307/1266221
NR 10
TC 10
Z9 10
U1 0
U2 0
PU INST MATHEMATICAL STATISTICS
PI HAYWARD
PA IMS BUSINESS OFFICE-SUITE 7, 3401 INVESTMENT BLVD, HAYWARD, CA 94545
SN 0003-4851
J9 ANN MATH STAT
PY 1972
VL 43
IS 5
BP 1441
EP &
DI 10.1214/aoms/1177692376
PG 0
WC Mathematics; Statistics & Probability
SC Mathematics
GA N9477
UT WOS:A1972N947700005
ER

PT J
AU JAECKEL, LA
AF JAECKEL, LA
TI ESTIMATING REGRESSION COEFFICIENTS BY MINIMIZING DISPERSION OF RESIDUALS
SO ANNALS OF MATHEMATICAL STATISTICS
LA English
DT Article
CR ADICHIE JN, 1967, ANN MATH STAT, V38, P894, DOI 10.1214/aoms/1177698883
   CHERNOFF H, 1967, ANN MATH STAT, V38, P52, DOI 10.1214/aoms/1177699058
   DOWNTON F, 1966, BIOMETRIKA, V53, P129, DOI 10.2307/2334059
   Hardy G. H., 1952, INEQUALITIES
   HODGES JL, 1963, ANN MATH STAT, V34, P598, DOI 10.1214/aoms/1177704172
   JAECKEL LA, 1969, THESIS U CALIFORNIA
   JURECKOVA J, 1971, ANN MATH STAT, V42, P1328, DOI 10.1214/aoms/1177693245
   SEN PK, 1968, J AM STAT ASSOC, V63, P1379
   Theil H., 1950, NEDERLANDSCHE AKAD W, V53, P521
   Theil H., 1950, NEDERL AKAD WETENSCH, V53, P386
   Theil H., 1950, NEDERLANDSCHE AKAD W, V53, P1397
NR 11
TC 223
Z9 227
U1 0
U2 4
PU INST MATHEMATICAL STATISTICS
PI HAYWARD
PA IMS BUSINESS OFFICE-SUITE 7, 3401 INVESTMENT BLVD, HAYWARD, CA 94545
SN 0003-4851
J9 ANN MATH STAT
PY 1972
VL 43
IS 5
BP 1449
EP &
DI 10.1214/aoms/1177692377
PG 0
WC Mathematics; Statistics & Probability
SC Mathematics
GA N9477
UT WOS:A1972N947700006
ER

PT J
AU CRYER, JD
   WRIGHT, FT
   CASADY, RJ
   ROBERTSO.T
AF CRYER, JD
   WRIGHT, FT
   CASADY, RJ
   ROBERTSO.T
TI MONOTONE MEDIAN REGRESSION
SO ANNALS OF MATHEMATICAL STATISTICS
LA English
DT Article
CR Brunk H. D., 1970, NONPARAMETRIC TECHNI, P177
   HANSON DL, 1967, ANN MATH STAT, V38, P742, DOI 10.1214/aoms/1177698867
   HANSON DL, 1971, 45 U MISS MATH SCIEN
   HOGG RV, UNPUBLISHED MANUSCRI
   ROBERTSON T, 1968, ANN MATH STAT, V39, P1030, DOI 10.1214/aoms/1177698335
   WEGMAN EJ, UNPUBLISHED MANUSCRI
NR 6
TC 24
Z9 24
U1 0
U2 1
PU INST MATHEMATICAL STATISTICS
PI HAYWARD
PA IMS BUSINESS OFFICE-SUITE 7, 3401 INVESTMENT BLVD, HAYWARD, CA 94545
SN 0003-4851
J9 ANN MATH STAT
PY 1972
VL 43
IS 5
BP 1459
EP &
DI 10.1214/aoms/1177692378
PG 0
WC Mathematics; Statistics & Probability
SC Mathematics
GA N9477
UT WOS:A1972N947700007
ER

PT J
AU DARROCH, JN
   RATCLIFF, D
AF DARROCH, JN
   RATCLIFF, D
TI GENERALIZED ITERATIVE SCALING FOR LOG-LINEAR MODELS
SO ANNALS OF MATHEMATICAL STATISTICS
LA English
DT Article
CR BISHOP YMM, 1969, BIOMETRICS, V25, P383, DOI 10.2307/2528796
   Brown D. T., 1959, INFORM CONTR, V2, P386, DOI 10.1016/S0019-9958(59)80016-4
   CAMPBELL LL, 1970, ANN MATH STAT, V41, P1011, DOI 10.1214/aoms/1177696977
   DARROCH JN, 1962, J ROY STAT SOC B, V24, P251
   DARROCH JN, IN PRESS
   DEMPSTER AP, 1971, 512 HARV U RES REP
   FIENBERG SE, 1970, ANN MATH STAT, V41, P907, DOI 10.1214/aoms/1177696968
   GOKHALE DV, 1971, BIOMETRICS, V27, P681, DOI 10.2307/2528605
   GOOD IJ, 1963, ANN MATH STAT, V34, P911, DOI 10.1214/aoms/1177704014
   IRELAND CT, 1968, BIOMETRIKA, V55, P179
   IRELAND CT, 1969, J AM STAT ASSOC, V64, P1323, DOI 10.2307/2286071
   KULLBACK S, UNPUBLISHED TYPESCRI
   KULLBACK S, 1959, INFORMATION THEORY S
   PATIL GP, 1962, BIOMETRIKA, V49, P227, DOI 10.2307/2333484
   PATIL GP, 1966, SANKHYA SER A, V28, P225
   Rao C.R, 1965, LINEAR STATISTICAL I
NR 16
TC 480
Z9 527
U1 1
U2 15
PU INST MATHEMATICAL STATISTICS
PI HAYWARD
PA IMS BUSINESS OFFICE-SUITE 7, 3401 INVESTMENT BLVD, HAYWARD, CA 94545
SN 0003-4851
J9 ANN MATH STAT
PY 1972
VL 43
IS 5
BP 1470
EP &
DI 10.1214/aoms/1177692379
PG 0
WC Mathematics; Statistics & Probability
SC Mathematics
GA N9477
UT WOS:A1972N947700008
ER

PT J
AU SCLOVE, SL
   RADHAKRI.R
   MORRIS, C
AF SCLOVE, SL
   RADHAKRI.R
   MORRIS, C
TI NON-OPTIMALITY OF PRELIMINARY-TEST ESTIMATORS FOR MEAN OF A MULTIVARIATE
   NORMAL DISTRIBUTION
SO ANNALS OF MATHEMATICAL STATISTICS
LA English
DT Article
CR Anderson T. W., 1958, INTRO MULTIVARIATE S
   JAMES W, 1961, 4TH P BERK S MATH ST, V1, P361
   Stein C, 1966, RES PAPERS STATISTIC, P351
NR 3
TC 114
Z9 114
U1 0
U2 1
PU INST MATHEMATICAL STATISTICS
PI HAYWARD
PA IMS BUSINESS OFFICE-SUITE 7, 3401 INVESTMENT BLVD, HAYWARD, CA 94545
SN 0003-4851
J9 ANN MATH STAT
PY 1972
VL 43
IS 5
BP 1481
EP &
DI 10.1214/aoms/1177692380
PG 0
WC Mathematics; Statistics & Probability
SC Mathematics
GA N9477
UT WOS:A1972N947700009
ER

PT J
AU MURIHEAD, RJ
AF MURIHEAD, RJ
TI TEST OF INDEPENDENCE BETWEEN 2 SETS OF VARIATES
SO ANNALS OF MATHEMATICAL STATISTICS
LA English
DT Article
CR Anderson T. W., 1958, INTRO MULTIVARIATE S
   CONSTANTINE AG, 1963, ANN MATH STAT, V34, P1270, DOI 10.1214/aoms/1177703863
   Fisher RA, 1928, P R SOC LOND A-CONTA, V121, P654, DOI 10.1098/rspa.1928.0224
   GURLAND J, 1968, J ROY STAT SOC B, V30, P276
   MIJARES TA, 1964, PERCENTAGE POINTS SU
   MUIRHEAD RJ, 1970, ANN MATH STAT, V41, P1002, DOI 10.1214/aoms/1177696976
   MUIRHEAD RJ, 1970, ANN MATH STAT, V41, P991, DOI 10.1214/aoms/1177696975
   OLKIN I, 1964, 6 STANF U TECH REP
   PILLAI KCS, 1967, BIOMETRIKA, V54, P195, DOI 10.2307/2333863
   SUGIURA N, 1969, ANN MATH STAT, V40, P942, DOI 10.1214/aoms/1177697599
   SUGIURA N, TO BE PUBLISHED
   Wishart J, 1931, BIOMETRIKA, V22, P353, DOI 10.2307/2332101
NR 12
TC 0
Z9 0
U1 0
U2 0
PU INST MATHEMATICAL STATISTICS
PI HAYWARD
PA IMS BUSINESS OFFICE-SUITE 7, 3401 INVESTMENT BLVD, HAYWARD, CA 94545
SN 0003-4851
J9 ANN MATH STAT
PY 1972
VL 43
IS 5
BP 1491
EP &
PG 0
WC Mathematics; Statistics & Probability
SC Mathematics
GA N9477
UT WOS:A1972N947700010
ER

PT J
AU BINGHAM, C
AF BINGHAM, C
TI ASYMPTOTIC EXPANSION FOR DISTRIBUTION OF EIGENVALUES OF A 3 BY 3 WISHART
   MATRIX
SO ANNALS OF MATHEMATICAL STATISTICS
LA English
DT Article
CR ABRAMOWITZ M, 1964, NBS55 APPL MATH SER
   ANDERSON GA, 1965, ANN MATH STAT, V36, P1153, DOI 10.1214/aoms/1177699989
   BINGHAM CR, TO BE PUBLISHED
   Erdelyi A., 1953, HIGHER TRANSCENDENTA, V1
   JAMES AT, 1964, ANN MATH STAT, V35, P475, DOI 10.1214/aoms/1177703550
   JAMES AT, 1954, ANN MATH STAT, V25, P40, DOI 10.1214/aoms/1177728846
NR 6
TC 5
Z9 5
U1 0
U2 0
PU INST MATHEMATICAL STATISTICS
PI HAYWARD
PA IMS BUSINESS OFFICE-SUITE 7, 3401 INVESTMENT BLVD, HAYWARD, CA 94545
SN 0003-4851
J9 ANN MATH STAT
PY 1972
VL 43
IS 5
BP 1498
EP &
DI 10.1214/aoms/1177692382
PG 0
WC Mathematics; Statistics & Probability
SC Mathematics
GA N9477
UT WOS:A1972N947700011
ER

PT J
AU KILLEEN, TJ
   HETTMANS.TP
AF KILLEEN, TJ
   HETTMANS.TP
TI BIVARIATE TESTS FOR LOCATION AND THEIR BAHADUR EFFICIENCIES
SO ANNALS OF MATHEMATICAL STATISTICS
LA English
DT Article
CR Anderson T. W., 1958, INTRO MULTIVARIATE S
   BAHADUR RR, 1967, ANN MATH STAT, V38, P303, DOI 10.1214/aoms/1177698949
   BLUMEN I, 1958, J AM STAT ASSOC, V53, P448, DOI 10.2307/2281867
   CHERNOFF H, 1958, ANN MATH STAT, V29, P972, DOI 10.1214/aoms/1177706436
   Feller W, 1943, T AM MATH SOC, V54, P361, DOI 10.2307/1990252
   HODGES JL, 1955, ANN MATH STAT, V26, P523, DOI 10.1214/aoms/1177728498
   JOFFE A, 1962, ANN MATH STAT, V33, P803, DOI 10.1214/aoms/1177704600
   KILLEEN T, TO BE PUBLISHED
   Killeen T. J., 1971, THESIS PENNSYLVANIA
   KLOTZ J, 1964, ANN MATH STAT, V35, P1576, DOI 10.1214/aoms/1177700382
   KLOTZ J, 1965, ANN MATH STAT, V36, P1759, DOI 10.1214/aoms/1177699804
   Puri M. L., 1971, NONPARAMETRIC METHOD
   STONE M, 1967, BIOMETRIKA, V54, P629, DOI 10.2307/2335054
   WILCOXON F, 1945, BIOMETRICS BULL, V1, P80, DOI 10.2307/3001968
NR 14
TC 8
Z9 8
U1 0
U2 0
PU INST MATHEMATICAL STATISTICS
PI HAYWARD
PA IMS BUSINESS OFFICE-SUITE 7, 3401 INVESTMENT BLVD, HAYWARD, CA 94545
SN 0003-4851
J9 ANN MATH STAT
PY 1972
VL 43
IS 5
BP 1507
EP &
DI 10.1214/aoms/1177692383
PG 0
WC Mathematics; Statistics & Probability
SC Mathematics
GA N9477
UT WOS:A1972N947700012
ER

PT J
AU HEDAYAT, A
   SEIDEN, E
   FEDERER, WT
AF HEDAYAT, A
   SEIDEN, E
   FEDERER, WT
TI SOME FAMILIES OF DESIGNS FOR MULTISTAGE EXPERIMENTS - MUTUALLY BALANCED
   YOUDEN DESIGNS WHEN NUMBER OF TREATMENTS IS PRIME POWER OR TWIN PRIMES
   .1.
SO ANNALS OF MATHEMATICAL STATISTICS
LA English
DT Article
CR Bose R. C., 1964, SANKHYA A, V26, P145
   CAUSEY BD, 1968, ANN MATH STAT, V39, P1577
   CAUSEY BD, 1967, THESIS U CHICAGO
   CLARKE GM, 1963, BIOMETRICS, V19, P98, DOI 10.2307/2527574
   CLARKE GM, 1967, BIOMETRICS, V23, P803, DOI 10.2307/2528430
   Hall Jr M., 1967, COMBINATORIAL THEORY
   Hall Jr Marshall, 1956, P AM MATH SOC, V7, P975, DOI 10.2307/2033024
   HEDAYAT A, 1969, BIOMETRIKA, V56, P547
   MANN HB, 1967, AM MATH MON, V74, P229, DOI 10.2307/2316013
   PEARCE DA, 1966, BIOMETRICS, V22, P1
   POTTHOFF RF, 1962, TECHNOMETRICS, V4, P361, DOI 10.2307/1266573
   POTTHOFF RF, 1963, BIOMETRICS, V19, P229, DOI 10.2307/2527812
   POTTHOFF RF, 1958, 211 U N CAR I STAT M
   POTTHOFF RJ, 1963, CALCUTTA STAT ASS B, V12, P19
   RYSER HJ, 1963, COMBINATORIAL MATHEM
   SRIVASTAVA JN, 1970, ANN MATH STAT, V41, P1438, DOI 10.1214/aoms/1177696789
   Stanton R. G., 1958, CAN J MATH, V10, P73, DOI 10.4153/CJM-1958-008-5
   YOUDEN W. J., 1937, CONTR BOYCE THOMPSON INST, V9, P41
   YOUDEN W. J., 1940, CONTR BOYCE THOMPSON INST, V11, P219
NR 19
TC 10
Z9 10
U1 0
U2 0
PU INST MATHEMATICAL STATISTICS
PI HAYWARD
PA IMS BUSINESS OFFICE-SUITE 7, 3401 INVESTMENT BLVD, HAYWARD, CA 94545
SN 0003-4851
J9 ANN MATH STAT
PY 1972
VL 43
IS 5
BP 1517
EP &
DI 10.1214/aoms/1177692384
PG 0
WC Mathematics; Statistics & Probability
SC Mathematics
GA N9477
UT WOS:A1972N947700013
ER

PT J
AU KAGEYAMA, S
AF KAGEYAMA, S
TI REDUCTION OF ASSOCIATE CLASSES FOR CERTAIN PBIB DESIGNS
SO ANNALS OF MATHEMATICAL STATISTICS
LA English
DT Article
CR Bose RC, 1939, SANKHYA, V4, P337
   BOSE RC, 1959, ANN MATH STAT, V30, P21, DOI 10.1214/aoms/1177706356
   HINKELMANN K, 1964, ANN MATH STAT, V35, P681, DOI 10.1214/aoms/1177703565
   HINKELMANN K, 1963, BIOMETRIKA, V50, P281, DOI 10.2307/2333899
   Kusumoto K, 1965, Wakayama Med Rep, V9, P123
   RAGHAVARAO D, 1964, ANN MATH STAT, V35, P389, DOI 10.1214/aoms/1177703762
   Shrikhande S. S., 1962, SANKHYA A, V24, P33
   SILLITTO GP, 1957, BIOMETRIKA, V44, P278
   VARTAK MN, 1959, ANN MATH STAT, V30, P1051, DOI 10.1214/aoms/1177706089
   VARTAK MN, 1955, ANN MATH STAT, V26, P420, DOI 10.1214/aoms/1177728488
   YAMAMOTO S, 1963, J SCI HIROSHIMA U A1, V27, P119
   Yamamoto S., 1965, J SCI HIROSHIMA U A1, V29, P181
NR 12
TC 9
Z9 9
U1 0
U2 0
PU INST MATHEMATICAL STATISTICS
PI HAYWARD
PA IMS BUSINESS OFFICE-SUITE 7, 3401 INVESTMENT BLVD, HAYWARD, CA 94545
SN 0003-4851
J9 ANN MATH STAT
PY 1972
VL 43
IS 5
BP 1528
EP &
DI 10.1214/aoms/1177692385
PG 0
WC Mathematics; Statistics & Probability
SC Mathematics
GA N9477
UT WOS:A1972N947700014
ER

PT J
AU BOHRER, R
   FRANCIS, GK
AF BOHRER, R
   FRANCIS, GK
TI SHARP ONE-SIDED CONFIDENCE BOUNDS OVER POSITIVE REGIONS
SO ANNALS OF MATHEMATICAL STATISTICS
LA English
DT Article
CR Birkhoff G., 1953, SURVEY MODERN ALGEBR
   BOHRER R, 1967, J ROY STAT SOC B, V29, P110
   BOHRER R, 1969, B I INT STATISTIQUE, V43, P255
   BOHRER R, 1972, BIOMETRIKA, V59
   MOLLER H, 1967, BEITRAGE INTEGRATION
   Samelson H., 1958, P AM MATH SOC, V9, P805, DOI 10.2307/2033091
   SCHEFFE H, 1959, ANALYSIS VARIANCE
   VANDERWAERDEN BL, 1969, MATHEMATICAL STATIST
NR 8
TC 30
Z9 30
U1 0
U2 0
PU INST MATHEMATICAL STATISTICS
PI HAYWARD
PA IMS BUSINESS OFFICE-SUITE 7, 3401 INVESTMENT BLVD, HAYWARD, CA 94545
SN 0003-4851
J9 ANN MATH STAT
PY 1972
VL 43
IS 5
BP 1541
EP &
DI 10.1214/aoms/1177692386
PG 0
WC Mathematics; Statistics & Probability
SC Mathematics
GA N9477
UT WOS:A1972N947700015
ER

PT J
AU SOBEL, M
   UPPULURI, VR
AF SOBEL, M
   UPPULURI, VR
TI BONFERRONI-TYPE INEQUALITIES OF SAME DEGREE FOR PROBABILITY OF UNION AND
   INTERSECTIONS
SO ANNALS OF MATHEMATICAL STATISTICS
LA English
DT Article
CR CHUNG KL, 1952, T AM MATH SOC, V72, P179, DOI 10.2307/1990661
   FRECHET M, 1943, ACTUALITES SCIENTIFI
   FRECHET M, 1940, ACTUALITES SCIENTIFI
   GALLOT S, 1966, J APPL PROBAB, V3, P556, DOI 10.2307/3212139
   KOUNIAS EG, 1968, ANN MATH STAT, V39, P2154, DOI 10.1214/aoms/1177698049
   OLKIN I, 1965, BIOMETRIKA, V52, P167, DOI 10.2307/2333822
   WHITTLE P, 1959, CALCUL PROBABILITES, P173
NR 7
TC 28
Z9 28
U1 0
U2 1
PU INST MATHEMATICAL STATISTICS
PI HAYWARD
PA IMS BUSINESS OFFICE-SUITE 7, 3401 INVESTMENT BLVD, HAYWARD, CA 94545
SN 0003-4851
J9 ANN MATH STAT
PY 1972
VL 43
IS 5
BP 1549
EP &
DI 10.1214/aoms/1177692387
PG 0
WC Mathematics; Statistics & Probability
SC Mathematics
GA N9477
UT WOS:A1972N947700016
ER

PT J
AU DUBINS, LE
AF DUBINS, LE
TI SHARP BOUNDS FOR TOTAL VARIANCE OF UNIFORMLY BOUNDED SEMIMARTINGALES
SO ANNALS OF MATHEMATICAL STATISTICS
LA English
DT Article
CR Blackwell D., 1964, P S APPL MATH, V16, P277
   Doob J. L., 1953, STOCHASTIC PROCESSES
   DUBINS L, 1965, HOW TO GAMBLE IF YOU
   DUBINS LE, 1965, ANN MATH STAT, V36, P800, DOI 10.1214/aoms/1177700054
   DUBINS LE, 1965, P NATL ACAD SCI USA, V51, P274
NR 5
TC 4
Z9 4
U1 0
U2 0
PU INST MATHEMATICAL STATISTICS
PI HAYWARD
PA IMS BUSINESS OFFICE-SUITE 7, 3401 INVESTMENT BLVD, HAYWARD, CA 94545
SN 0003-4851
J9 ANN MATH STAT
PY 1972
VL 43
IS 5
BP 1559
EP &
DI 10.1214/aoms/1177692388
PG 0
WC Mathematics; Statistics & Probability
SC Mathematics
GA N9477
UT WOS:A1972N947700017
ER

PT J
AU YARNOLD, JK
AF YARNOLD, JK
TI ASYMPTOTIC APPROXIMATIONS FOR PROBABILITY THAT A SUM OF LATTICE RANDOM
   VECTORS LIES IN A CONVEX SET
SO ANNALS OF MATHEMATICAL STATISTICS
LA English
DT Article
CR Bergstrom H, 1945, SKAND AKTUARIETIDSKR, V28, P106
   BHATTACHARYA RN, 1967, THESIS U CHICAGO
   Cochran W. G., 1942, IOWA STATE COLL J SC, V16, P421
   Cramer H., 1946, MATHEMATICAL METHODS
   Cramer H, 1928, SKAND AKTUARIETIDSKR, V11, P13
   Cramer H, 1928, SKAND AKTUARIETIDSKR, V11, P141
   ESSEEN C.-G., 1945, ACTA MATH, V77, P1, DOI 10.1007/BF02392223
   Haldane JBS, 1937, BIOMETRIKA, V29, P133, DOI 10.2307/2332411
   Hoel PG, 1938, ANN MATH STAT, V9, P158, DOI 10.1214/aoms/1177732307
   KNOPP K, 1951, THEORY APPLICATION I
   RANGARAO R, 1961, B AM MATH SOC, V67, P359, DOI 10.1090/S0002-9904-1961-10615-0
   RANGARAO R, 1961, THESIS CALCUTTA U
   YARNOLD JK, 1970, J AM STAT ASSOC, V65, P864, DOI 10.2307/2284594
   YARNOLD JK, 1972, EDGEWORTH APPROXIMAT
   YARNOLD JK, 1968, THESIS U CHICAGO
NR 15
TC 46
Z9 46
U1 0
U2 0
PU INST MATHEMATICAL STATISTICS
PI HAYWARD
PA IMS BUSINESS OFFICE-SUITE 7, 3401 INVESTMENT BLVD, HAYWARD, CA 94545
SN 0003-4851
J9 ANN MATH STAT
PY 1972
VL 43
IS 5
BP 1566
EP &
DI 10.1214/aoms/1177692389
PG 0
WC Mathematics; Statistics & Probability
SC Mathematics
GA N9477
UT WOS:A1972N947700018
ER

PT J
AU NIINILUOTO, I
AF NIINILUOTO, I
TI FINE AND TIGHT QUALITATIVE PROBABILITIES
SO ANNALS OF MATHEMATICAL STATISTICS
LA English
DT Article
CR DOMOTOR Z, 1969, 144 STANF U DEP STAT
   FINETTI BD, 1931, FUND MATH, V17, P298
   FISHBURN PC, 1969, ANN MATH STAT, V40, P2118, DOI 10.1214/aoms/1177697289
   Fishburn Peter C, 1970, UTILITY THEORY DECIS
   KRAFT CH, 1959, ANN MATH STAT, V30, P408, DOI 10.1214/aoms/1177706260
   LUCE RD, 1967, ANN MATH STAT, V38, P780, DOI 10.1214/aoms/1177698871
   LUCE RD, 1968, ANN MATH STAT, V39, P481, DOI 10.1214/aoms/1177698411
   SAVAGE LJ, 1954, FOUNDATIONS STATISTI
   SCOTT D, 1964, J MATH PSYCHOL, V1, P233, DOI 10.1016/0022-2496(64)90002-1
   Sikorski R., 1964, BOOLEAN ALGEBRAS
   VILLEGAS C, 1964, ANN MATH STAT, V35, P1787, DOI 10.1214/aoms/1177700400
NR 11
TC 5
Z9 5
U1 0
U2 0
PU INST MATHEMATICAL STATISTICS
PI CLEVELAND
PA 3163 SOMERSET DR, CLEVELAND, OH 44122 USA
SN 0003-4851
J9 ANN MATH STAT
JI Ann. Math. Stat.
PY 1972
VL 43
IS 5
BP 1581
EP +
DI 10.1214/aoms/1177692390
PG 1
WC Mathematics; Statistics & Probability
SC Mathematics
GA N9477
UT WOS:A1972N947700019
ER

PT J
AU HERN, TA
AF HERN, TA
TI ERROR ESTIMATES FOR WEAK CONVERGENCE TO CERTAIN INFINITELY DIVISIBLE
   LAWS
SO ANNALS OF MATHEMATICAL STATISTICS
LA English
DT Article
CR DE HAAN L., 1970, REGULAR VARIATION IT
   ESSEEN C.-G., 1945, ACTA MATH, V77, P1, DOI 10.1007/BF02392223
   FELLER W., 1966, INTRO PROBABILITY TH, VII
   Gnedenko B. V., 1954, LIMIT DISTRIBUTIONS
   Karamata J., 1930, MATH CLUJ, V4, P38
   Karamata J., 1933, B SOC MATH FRANCE, V61, P55
   SHAPIRO JM, 1955, ANN MATH STAT, V26, P617, DOI 10.1214/aoms/1177728421
   SHAPIRO JM, 1970, ANN MATH ST, V41, P237
   TUCKER HG, 1968, ANN MATH STAT, V39, P1381
NR 9
TC 1
Z9 1
U1 0
U2 0
PU INST MATHEMATICAL STATISTICS
PI HAYWARD
PA IMS BUSINESS OFFICE-SUITE 7, 3401 INVESTMENT BLVD, HAYWARD, CA 94545
SN 0003-4851
J9 ANN MATH STAT
PY 1972
VL 43
IS 5
BP 1592
EP &
DI 10.1214/aoms/1177692391
PG 0
WC Mathematics; Statistics & Probability
SC Mathematics
GA N9477
UT WOS:A1972N947700020
ER

PT J
AU KADOTA, TT
   WYNER, AD
AF KADOTA, TT
   WYNER, AD
TI CODING THEOREM FOR STATIONARY, ASYMPTOTICALLY MEMORYLESS,
   CONTINUOUS-TIME CHANNELS
SO ANNALS OF MATHEMATICAL STATISTICS
LA English
DT Article
CR BHARUCHA BH, 1969, INFORM CONTROL, V14, P98, DOI 10.1016/S0019-9958(69)90041-2
   DOOB JL, 1953, STOCHASTIC PROCESSES, P69
   GALLAGER RG, 1968, INFORMATION THEORY R
   HALMOS P. R., 1950, MEASURE THEORY
   KADOTA TT, 1970, IEEE T INFORM THEORY, V16, P791, DOI 10.1109/TIT.1970.1054564
   KADOTA TT, 1971, IEEE T INFORM THEORY, V17, P140, DOI 10.1109/TIT.1971.1054611
   NEVEU J, 1965, MATHEMATICAL FOUNDAT, P73
   PFAFFELHUBER E, 1971, IEEE T INFORM THEORY, V17, P379, DOI 10.1109/TIT.1971.1054666
   PINSKER MS, 1964, INFORMATION INFORMAT
   Wolfowitz J., 1964, CODING THEOREMS INFO
NR 10
TC 15
Z9 15
U1 0
U2 0
PU INST MATHEMATICAL STATISTICS
PI HAYWARD
PA IMS BUSINESS OFFICE-SUITE 7, 3401 INVESTMENT BLVD, HAYWARD, CA 94545
SN 0003-4851
J9 ANN MATH STAT
PY 1972
VL 43
IS 5
BP 1603
EP &
DI 10.1214/aoms/1177692392
PG 0
WC Mathematics; Statistics & Probability
SC Mathematics
GA N9477
UT WOS:A1972N947700021
ER

PT J
AU FURUKAWA, N
AF FURUKAWA, N
TI MARKOVIAN DECISION PROCESSES WITH COMPACT ACTION SPACES
SO ANNALS OF MATHEMATICAL STATISTICS
LA English
DT Article
CR BLACKWELL D, 1963, ANN MATH STAT, V34, P223, DOI 10.1214/aoms/1177704259
   Blackwell D, 1965, ANN MATH STAT, V36, P226, DOI DOI 10.1214/AOMS/1177700285
   DUBINS L, 1965, HOW TO GAMBLE IF YOU
   Howard R. A., 1960, DYNAMIC PROGRAMMING
   Kuratowski C., 1958, TOPOLOGIE, V1
   KURATOWSKI K, 1965, B ACAD POL SCI SMAP, V13, P397
   KURATOWSKI K, 1961, TOPOLOGIE, V2
   Maitra A, 1968, SANKHYA            A, V30, P211
   OLECH C, 1965, B ACAD POL SCI SMAP, V13, P317
   STRAUCH RE, 1966, ANN MATH STAT, V37, P871, DOI 10.1214/aoms/1177699369
   STRAUCH RE, 1967, T AM MATH SOC, V126, P64
   SUDDERTH WD, 1969, T AM MATH SOC, V135, P399, DOI 10.2307/1995023
NR 12
TC 17
Z9 17
U1 0
U2 0
PU INST MATHEMATICAL STATISTICS
PI HAYWARD
PA IMS BUSINESS OFFICE-SUITE 7, 3401 INVESTMENT BLVD, HAYWARD, CA 94545
SN 0003-4851
J9 ANN MATH STAT
PY 1972
VL 43
IS 5
BP 1612
EP &
DI 10.1214/aoms/1177692393
PG 0
WC Mathematics; Statistics & Probability
SC Mathematics
GA N9477
UT WOS:A1972N947700022
ER

PT J
AU JACOBS, DR
   SCHACH, S
AF JACOBS, DR
   SCHACH, S
TI STOCHASTIC ORDER RELATIONSHIPS BETWEEN GI/G/K SYSTEMS
SO ANNALS OF MATHEMATICAL STATISTICS
LA English
DT Article
CR DALEY DJ, 1968, THEOR PROBAB APPL+, V13, P338, DOI 10.1137/1113042
   KENNEDY DP, 1970, 12 STANF U DEP OP RE
   Kiefer J., 1955, T AM MATH SOC, V78, P1
   LEHMANN EL, 1959, TESTING STATISTICAL
   STOYAN H, 1969, Z ANGEW MATH MECH, V49, P729, DOI 10.1002/zamm.19690491205
   Takacs L., 1962, INTRO THEORY QUEUES
   Takacs L., 1963, SANKHYA            A, V25, P91
   WHITT W, 1971, CONTINUITY QUEUES
NR 8
TC 23
Z9 24
U1 0
U2 0
PU INST MATHEMATICAL STATISTICS
PI HAYWARD
PA IMS BUSINESS OFFICE-SUITE 7, 3401 INVESTMENT BLVD, HAYWARD, CA 94545
SN 0003-4851
J9 ANN MATH STAT
PY 1972
VL 43
IS 5
BP 1623
EP &
DI 10.1214/aoms/1177692394
PG 0
WC Mathematics; Statistics & Probability
SC Mathematics
GA N9477
UT WOS:A1972N947700023
ER

PT J
AU FERGUSON, TS
   KLASS, MJ
AF FERGUSON, TS
   KLASS, MJ
TI REPRESENTATION OF INDEPENDENT INCREMENT PROCESSES WITHOUT GAUSSIAN
   COMPONENTS
SO ANNALS OF MATHEMATICAL STATISTICS
LA English
DT Article
CR Breiman L., 1968, PROBABILITY
   Ferguson T., 1967, MATHEMATICAL STATIST
   FERGUSON TFM, TO BE PUBLISHED
   Ito K, 1965, DIFFUSION PROCESSES
   Levy P, 1937, THEORIE ADDITION VAR
   Neveu J, 1965, MATHEMATICAL FOUNDAT
   Parzen E., 1962, STOCHASTIC PROCESSES
   Wiener N., 1924, B SOC MATH FRANCE, V52, P569
NR 8
TC 100
Z9 100
U1 0
U2 1
PU INST MATHEMATICAL STATISTICS
PI HAYWARD
PA IMS BUSINESS OFFICE-SUITE 7, 3401 INVESTMENT BLVD, HAYWARD, CA 94545
SN 0003-4851
J9 ANN MATH STAT
PY 1972
VL 43
IS 5
BP 1634
EP &
DI 10.1214/aoms/1177692395
PG 0
WC Mathematics; Statistics & Probability
SC Mathematics
GA N9477
UT WOS:A1972N947700024
ER

PT J
AU SEELY, J
AF SEELY, J
TI COMPLETENESS FOR A FAMILY OF MULTIVARIATE NORMAL DISTRIBUTIONS
SO ANNALS OF MATHEMATICAL STATISTICS
LA English
DT Article
CR BARANKIN EW, 1949, MATH STAT4470 RESEAR
   RAO CR, 1970, MATHSTAT4470 IND STA
   SEELY J, 1971, ANN MATH STAT, V42, P691, DOI 10.1214/aoms/1177693418
   SEELY J, 1971, ANN MATH STAT, V42, P710, DOI 10.1214/aoms/1177693420
   STEIN C, 1950, ANN MATH STAT, V21, P406, DOI 10.1214/aoms/1177729799
NR 5
TC 19
Z9 19
U1 0
U2 0
PU INST MATHEMATICAL STATISTICS
PI HAYWARD
PA IMS BUSINESS OFFICE-SUITE 7, 3401 INVESTMENT BLVD, HAYWARD, CA 94545
SN 0003-4851
J9 ANN MATH STAT
PY 1972
VL 43
IS 5
BP 1644
EP &
DI 10.1214/aoms/1177692396
PG 0
WC Mathematics; Statistics & Probability
SC Mathematics
GA N9477
UT WOS:A1972N947700025
ER

PT J
AU FISHBURN, PC
AF FISHBURN, PC
TI ALTERNATIVE AXIOMATIZATIONS OF ONE-WAY EXPECTED UTILITY
SO ANNALS OF MATHEMATICAL STATISTICS
LA English
DT Article
CR AUMANN RJ, 1964, ECONOMETRICA, V32, P210, DOI 10.2307/1913746
   AUMANN RJ, 1962, ECONOMETRICA, V30, P445, DOI 10.2307/1909888
   FISHBURN PC, 1971, ANN MATH STAT, V42, P572, DOI 10.1214/aoms/1177693407
   FISHBURN PC, 1972, J MATH PSYCHOL, V9, P294, DOI 10.1016/0022-2496(72)90020-X
   HAUSNER M, 1952, P AM MATH SOC, V3, P977, DOI 10.2307/2031746
   KANNAI Y, 1963, ISRAEL J MATH, V1, P229, DOI 10.1007/BF02759725
   NEUMANN JV, 1947, THEORY GAMES ECONOMI
NR 7
TC 11
Z9 11
U1 0
U2 0
PU INST MATHEMATICAL STATISTICS
PI HAYWARD
PA IMS BUSINESS OFFICE-SUITE 7, 3401 INVESTMENT BLVD, HAYWARD, CA 94545
SN 0003-4851
J9 ANN MATH STAT
PY 1972
VL 43
IS 5
BP 1648
EP &
DI 10.1214/aoms/1177692397
PG 0
WC Mathematics; Statistics & Probability
SC Mathematics
GA N9477
UT WOS:A1972N947700026
ER

PT J
AU GULATI, BR
AF GULATI, BR
TI CONSTRUCTION OF 2-LEVEL SATURATED SYMMETRICAL FACTORIAL DESIGNS OF
   RESOLUTION VI
SO ANNALS OF MATHEMATICAL STATISTICS
LA English
DT Article
CR BLUM JR, 1970, J COMBINATORIAL THEO, V9, P239, DOI 10.1016/S0021-9800(70)80062-X
   Bose RC, 1947, SANKHYA, V8, P107
   BUSH KA, 1952, ANN MATH STAT, V23, P508
   DRAPER NR, 1967, ANN MATH STAT, V38, P1110, DOI 10.1214/aoms/1177698780
   DRAPER NR, 1968, ANN MATH STAT, V39, P246, DOI 10.1214/aoms/1177698525
   DRAPER NR, 1970, ANN MATH STAT, V41, P876, DOI 10.1214/aoms/1177696965
   GULATI BR, TO BE PUBLISHED
   GULATI BR, 1969, THESIS U CONNECTICUT
   Rao C. R., 1947, JR STATIST SOC     S, V9, P128
   SEIDEN E, 1966, ANN MATH STAT, V37, P1355, DOI 10.1214/aoms/1177699280
   SEIDEN E, 1964, RM117 MICH STAT U TE
NR 11
TC 0
Z9 0
U1 0
U2 0
PU INST MATHEMATICAL STATISTICS
PI HAYWARD
PA IMS BUSINESS OFFICE-SUITE 7, 3401 INVESTMENT BLVD, HAYWARD, CA 94545
SN 0003-4851
J9 ANN MATH STAT
PY 1972
VL 43
IS 5
BP 1652
EP &
DI 10.1214/aoms/1177692398
PG 0
WC Mathematics; Statistics & Probability
SC Mathematics
GA N9477
UT WOS:A1972N947700027
ER

PT J
AU DAVIS, AW
AF DAVIS, AW
TI MARGINAL DISTRIBUTIONS OF LATENT ROOTS OF MULTIVARIATE BETA MATRIX
SO ANNALS OF MATHEMATICAL STATISTICS
LA English
DT Article
CR ALANI S, 1968, 145 PURD U DEP STAT
   Coddington E. A., 1955, THEORY ORDINARY DIFF
   DAVIS AW, 1968, ANN MATH STAT, V39, P815, DOI 10.1214/aoms/1177698313
   DAVIS AW, 1970, ANN MATH STAT, V41, P1557, DOI 10.1214/aoms/1177696799
   DAVIS AW, 1970, BIOMETRIKA, V57, P187, DOI 10.2307/2334948
   HANUMARA RC, 1968, BIOMETRIKA, V55, P505, DOI 10.2307/2334254
   HECK DL, 1960, ANN MATH STAT, V31, P625, DOI 10.1214/aoms/1177705790
   KHATRI CG, 1969, ANN I STAT MATH, V21, P23, DOI 10.1007/BF02532229
   KHATRI CG, 1964, ANN MATH STAT, V35, P1807, DOI 10.1214/aoms/1177700403
   PILLAI KCS, 1965, BIOMETRIKA, V52, P405, DOI 10.2307/2333693
   PILLAI KCS, 1967, BIOMETRIKA, V54, P189, DOI 10.2307/2333862
   PILLAI KCS, 1969, ANN I STAT MATH, V21, P49
   PILLAI KCS, 1954, 88 U N CAR I STAT
   Roy SN, 1945, SANKHYA, V7, P133
   Roy S. N., 1957, SOME ASPECTS MULTIVA
   SUGIYAMA T, 1967, ANN MATH STAT, V38, P1152, DOI 10.1214/aoms/1177698784
   SUGIYAMA T, 1967, REP STATIST APPL RES, V14, P156
NR 17
TC 10
Z9 10
U1 0
U2 1
PU INST MATHEMATICAL STATISTICS
PI HAYWARD
PA IMS BUSINESS OFFICE-SUITE 7, 3401 INVESTMENT BLVD, HAYWARD, CA 94545
SN 0003-4851
J9 ANN MATH STAT
PY 1972
VL 43
IS 5
BP 1664
EP &
DI 10.1214/aoms/1177692399
PG 0
WC Mathematics; Statistics & Probability
SC Mathematics
GA N9477
UT WOS:A1972N947700028
ER

PT J
AU MUIRHEAD, RJ
AF MUIRHEAD, RJ
TI ASYMPTOTIC NON-CENTRAL DISTRIBUTION OF HOTELLINGS GENERALIZED TO2
SO ANNALS OF MATHEMATICAL STATISTICS
LA English
DT Article
CR CONSTANT.AG, 1966, ANN MATH STAT, V37, P215, DOI 10.1214/aoms/1177699611
   DAVIS AW, 1968, ANN MATH STAT, V39, P815, DOI 10.1214/aoms/1177698313
   HAYAKAWA T, 1970, ANN MATH STAT, V41, P1799
   HERZ CS, 1955, ANN MATH, V61, P474, DOI 10.2307/1969810
   Hotelling H., 1947, TECHNIQUES STAT ANAL, P111
   ITO K, 1960, ANN MATH STAT, V31, P1148, DOI 10.1214/aoms/1177705685
   ITO K, 1956, ANN MATH STAT, V27, P1091, DOI 10.1214/aoms/1177728075
   JAMES AT, 1964, ANN MATH STAT, V35, P475, DOI 10.1214/aoms/1177703550
   Lawley DN, 1938, BIOMETRIKA, V30, P180, DOI 10.2307/2332232
   MUIRHEAD RJ, 1970, ANN MATH STAT, V41, P1002, DOI 10.1214/aoms/1177696976
   MUIRHEAD RJ, 1970, ANN MATH STAT, V41, P991, DOI 10.1214/aoms/1177696975
   PILLAI KCS, 1969, ANN I STAT MATH, V21, P309
   SIOTANI M, 1971, ANN MATH STAT, V42, P560, DOI 10.1214/aoms/1177693406
   SIOTANI M, 1957, ANN I STAT MATH, V9, P157, DOI 10.1007/BF02892503
NR 14
TC 7
Z9 7
U1 0
U2 0
PU INST MATHEMATICAL STATISTICS
PI HAYWARD
PA IMS BUSINESS OFFICE-SUITE 7, 3401 INVESTMENT BLVD, HAYWARD, CA 94545
SN 0003-4851
J9 ANN MATH STAT
PY 1972
VL 43
IS 5
BP 1671
EP &
DI 10.1214/aoms/1177692400
PG 0
WC Mathematics; Statistics & Probability
SC Mathematics
GA N9477
UT WOS:A1972N947700029
ER

PT J
AU OREILLY, FJ
   QUESENBE.CP
AF OREILLY, FJ
   QUESENBE.CP
TI UNIFORM STRONG CONSISTENCY OF RAO-BLACKWELL DISTRIBUTION FUNCTION
   ESTIMATORS
SO ANNALS OF MATHEMATICAL STATISTICS
LA English
DT Article
CR BERK RH, 1971, ANN MATH STAT, V42, P1135, DOI 10.1214/aoms/1177693348
   BERK RH, 1969, ANN MATH STAT, V40, P1492, DOI 10.1214/aoms/1177697522
   BLUM JR, 1955, ANN MATH STAT, V26, P527, DOI 10.1214/aoms/1177728499
   Loeve M., 1963, PROBABILITY THEORY
   Ranga Rao R, 1962, ANN MATH STAT, V33, P659
   SEHEULT AH, 1971, ANN MATH STAT, V42, P1434, DOI 10.1214/aoms/1177693255
   WOLFOWITZ J, 1959, ANN MATH ST, V25, P131
   WOLFOWITZ J, 1960, CONTRIBUTIONS PROBAB, P198
NR 8
TC 4
Z9 4
U1 0
U2 0
PU INST MATHEMATICAL STATISTICS
PI HAYWARD
PA IMS BUSINESS OFFICE-SUITE 7, 3401 INVESTMENT BLVD, HAYWARD, CA 94545
SN 0003-4851
J9 ANN MATH STAT
PY 1972
VL 43
IS 5
BP 1678
EP &
DI 10.1214/aoms/1177692401
PG 0
WC Mathematics; Statistics & Probability
SC Mathematics
GA N9477
UT WOS:A1972N947700030
ER

PT J
AU CHANDA, KC
AF CHANDA, KC
TI ESTIMATION OF TAIL END PROBABILITIES OF SAMPLE MEAN FOR LINEAR
   STOCHASTIC-PROCESSES
SO ANNALS OF MATHEMATICAL STATISTICS
LA English
DT Article
CR BAHADUR RR, 1960, ANN MATH STAT, V31, P1015, DOI 10.1214/aoms/1177705674
   Berry AC, 1941, T AM MATH SOC, V49, P122, DOI 10.2307/1990053
   CHANDA KC, 1963, ANN MATH STAT, V34, P1302, DOI 10.1214/aoms/1177703865
   Cramer H., 1937, RANDOM VARIABLES PRO
   ESSEEN C.-G., 1945, ACTA MATH, V77, P1, DOI 10.1007/BF02392223
   KOOPMANS LH, 1961, ANN MATH STAT, V32, P583, DOI 10.1214/aoms/1177705063
NR 6
TC 2
Z9 2
U1 0
U2 0
PU INST MATHEMATICAL STATISTICS
PI HAYWARD
PA IMS BUSINESS OFFICE-SUITE 7, 3401 INVESTMENT BLVD, HAYWARD, CA 94545
SN 0003-4851
J9 ANN MATH STAT
PY 1972
VL 43
IS 5
BP 1680
EP &
DI 10.1214/aoms/1177692402
PG 0
WC Mathematics; Statistics & Probability
SC Mathematics
GA N9477
UT WOS:A1972N947700031
ER

PT J
AU WRIGHT, FT
AF WRIGHT, FT
TI RATES OF CONVERGENCE FOR WEIGHTED SUMS OF RANDOM-VARIABLES
SO ANNALS OF MATHEMATICAL STATISTICS
LA English
DT Article
CR BAUM LE, 1965, T AM MATH SOC, V120, P108, DOI 10.2307/1994170
   FRANCK WE, 1966, T AM MATH SOC, V124, P347, DOI 10.2307/1994405
   HANSON DL, 1969, T AM MATH SOC, V141, P443
   HANSON DL, 1970, Z WAHRSCHEINLICHKEIT, V19, P81
   KOUNIAS EG, 1969, ANN MATH STAT, V40, P1091, DOI 10.1214/aoms/1177697615
   Loeve M., 1963, PROBABILITY THEORY
   ROHATGI VK, 1969, P AM MATH SOC, V20, P570, DOI 10.2307/2035701
NR 7
TC 4
Z9 4
U1 0
U2 0
PU INST MATHEMATICAL STATISTICS
PI HAYWARD
PA IMS BUSINESS OFFICE-SUITE 7, 3401 INVESTMENT BLVD, HAYWARD, CA 94545
SN 0003-4851
J9 ANN MATH STAT
PY 1972
VL 43
IS 5
BP 1687
EP &
DI 10.1214/aoms/1177692403
PG 0
WC Mathematics; Statistics & Probability
SC Mathematics
GA N9477
UT WOS:A1972N947700032
ER

PT J
AU JAIN, NC
   PRUITT, WE
AF JAIN, NC
   PRUITT, WE
TI LAW OF ITERATED LOGARITHM FOR RANGE OF RANDOM-WALK
SO ANNALS OF MATHEMATICAL STATISTICS
LA English
DT Article
CR Dvorestzky A., 1951, 2ND P BERK S MATH ST, P353
   Feller W, 1943, T AM MATH SOC, V54, P373, DOI 10.2307/1990253
   JAIN N, 1968, ISRAEL J MATH, V6, P373, DOI 10.1007/BF02771217
   JAIN NC, 1971, J ANAL MATH, V24, P369, DOI 10.1007/BF02790380
   JAIN NC, 1970, Z WAHRSCHEINLICHKEIT, V16, P279, DOI 10.1007/BF00535133
   JAIN NC, TO BE PUBLISHED
   JAIN NC, 1972, 6 P BERK S MATH STAT
   Loeve M., 1963, PROBABILITY THEORY
   Spitzer F, 1964, PRINCIPLES RANDOM WA
NR 9
TC 17
Z9 18
U1 0
U2 0
PU INST MATHEMATICAL STATISTICS
PI HAYWARD
PA IMS BUSINESS OFFICE-SUITE 7, 3401 INVESTMENT BLVD, HAYWARD, CA 94545
SN 0003-4851
J9 ANN MATH STAT
PY 1972
VL 43
IS 5
BP 1692
EP &
DI 10.1214/aoms/1177692404
PG 0
WC Mathematics; Statistics & Probability
SC Mathematics
GA N9477
UT WOS:A1972N947700033
ER

PT J
AU PARK, CJ
AF PARK, CJ
TI CLASSICAL OCCUPANCY PROBLEM
SO ANNALS OF MATHEMATICAL STATISTICS
LA English
DT Article
CR Caratheodory C, 1907, MATH ANN, V64, P95, DOI 10.1007/BF01449883
   Caratheodory C., 1911, REND CIRC MAT PALERM, V32, P193, DOI [DOI 10.1007/BF03014795, 10.1007/BF03014795]
   HARKNESS WL, 1969, 11 PENN STAT U DEPT
   HARRIS B, TO BE PUBLISHED
   Okamoto M., 1952, OSAKA MATH J, V4, P77
   Renyi A., 1962, MAGYAR TUD AKAD MAT, V7, P203
   Riesz F., 1911, ANN SCI ECOLE NORM S, V28, P33
   SEVASTYANOV BA, 1964, THEOR PROBAB APPL, V9, P198, DOI 10.1137/1109034
   WEISS I, 1958, ANN MATH STAT, V29, P878, DOI 10.1214/aoms/1177706544
NR 9
TC 9
Z9 9
U1 0
U2 0
PU INST MATHEMATICAL STATISTICS
PI HAYWARD
PA IMS BUSINESS OFFICE-SUITE 7, 3401 INVESTMENT BLVD, HAYWARD, CA 94545
SN 0003-4851
J9 ANN MATH STAT
PY 1972
VL 43
IS 5
BP 1698
EP &
DI 10.1214/aoms/1177692405
PG 0
WC Mathematics; Statistics & Probability
SC Mathematics
GA N9477
UT WOS:A1972N947700034
ER

PT J
AU KEILSON, J
AF KEILSON, J
TI THRESHOLD FOR LOG-CONCAVITY FOR PROBABILITY GENERATING FUNCTIONS AND
   ASSOCIATED MOMENT INEQUALITIES
SO ANNALS OF MATHEMATICAL STATISTICS
LA English
DT Article
CR BARLOW RE, 1963, ANN MATH STAT, V34, P375, DOI 10.1214/aoms/1177704147
   FELLER W., 1966, INTRO PROBABILITY TH, VII
   Hardy G. H., 1934, INEQUALITIES
   Ibragimov I. A., 1956, THEORY PROBABILITY I, V1, P255, DOI 10.1137/1101021
   Karlin S., 1968, TOTAL POSITIVITY
   Karlin S, 1961, PAC J MATH, V11, P1023
   KEILSON J, 1971, J APPL PROBAB, V8, P391, DOI 10.2307/3211909
   KEILSON J, 1971, J AM STAT ASSOC, V66, P386, DOI 10.2307/2283941
   KENDALL M, 1968, ADVANCED THEORY STAT, V1
NR 9
TC 6
Z9 6
U1 0
U2 1
PU INST MATHEMATICAL STATISTICS
PI HAYWARD
PA IMS BUSINESS OFFICE-SUITE 7, 3401 INVESTMENT BLVD, HAYWARD, CA 94545
SN 0003-4851
J9 ANN MATH STAT
PY 1972
VL 43
IS 5
BP 1702
EP &
DI 10.1214/aoms/1177692406
PG 0
WC Mathematics; Statistics & Probability
SC Mathematics
GA N9477
UT WOS:A1972N947700035
ER

PT J
AU WIJSMAN, RA
AF WIJSMAN, RA
TI THEOREM ON OBSTRUCTIVE DISTRIBUTIONS
SO ANNALS OF MATHEMATICAL STATISTICS
LA English
DT Article
CR BLACKWELL D, 1964, ANN MATH STAT, V35, P1345, DOI 10.1214/aoms/1177703292
   CHOW YS, 1965, ANN MATH STAT, V36, P789, DOI 10.1214/aoms/1177700053
   WALD A, 1946, ANN MATH STAT, V17, P493, DOI 10.1214/aoms/1177730889
   WIJSMAN RA, 1971, ANN MATH STAT, V42, P1859, DOI 10.1214/aoms/1177693052
   WIJSMAN RA, 1972, 6TH P BERK S MATH ST, V1, P109
NR 5
TC 6
Z9 6
U1 0
U2 0
PU INST MATHEMATICAL STATISTICS
PI HAYWARD
PA IMS BUSINESS OFFICE-SUITE 7, 3401 INVESTMENT BLVD, HAYWARD, CA 94545
SN 0003-4851
J9 ANN MATH STAT
PY 1972
VL 43
IS 5
BP 1709
EP &
DI 10.1214/aoms/1177692407
PG 0
WC Mathematics; Statistics & Probability
SC Mathematics
GA N9477
UT WOS:A1972N947700036
ER

PT J
AU JOHNSON, DP
AF JOHNSON, DP
TI HITTING TIME DISTRIBUTIONS FOR GENERAL STOCHASTIC-PROCESSES
SO ANNALS OF MATHEMATICAL STATISTICS
LA English
DT Article
CR Dynkin E B, 1965, MARKOV PROCESSES
   Meyer P. A., 1966, PROBABILITY POTENTIA
NR 2
TC 2
Z9 2
U1 0
U2 0
PU INST MATHEMATICAL STATISTICS
PI HAYWARD
PA IMS BUSINESS OFFICE-SUITE 7, 3401 INVESTMENT BLVD, HAYWARD, CA 94545
SN 0003-4851
J9 ANN MATH STAT
PY 1972
VL 43
IS 5
BP 1716
EP &
DI 10.1214/aoms/1177692408
PG 0
WC Mathematics; Statistics & Probability
SC Mathematics
GA N9477
UT WOS:A1972N947700037
ER

PT J
AU THOMAS, DL
AF THOMAS, DL
TI LIMITING DISTRIBUTIONS OF A RANDOM NUMBER OF DEPENDENT RANDOM-VARIABLES
SO ANNALS OF MATHEMATICAL STATISTICS
LA English
DT Article
CR BERMAN SM, 1962, ANN MATH STAT, V33, P894, DOI 10.1214/aoms/1177704458
   BERMAN SM, 1964, ANN MATH STAT, V35, P502, DOI 10.1214/aoms/1177703551
   Bilingsley P., 1968, CONVERGENCE PROBABIL
   CRAMER H, 1965, THEOR PROBAB APPL+, V10, P126
   Cramer H., 1946, MATHEMATICAL METHODS
   Dobrushin R. L., 1955, USP MAT NAUK, V10, P157
   FELLER W., 1966, INTRO PROBABILITY TH, VII
   Gnedenko B, 1943, ANN MATH, V44, P423, DOI 10.2307/1968974
   GUMBEL EJ, 1958, STATISTICS EXTREMES
   Karamata J., 1930, MATH CLUJ, V4, P38
   Lukacs E., 1960, CHARACTERISTICS FUNC
   NEWELL GF, 1964, ANN MATH STAT, V35, P1322, DOI 10.1214/aoms/1177703288
   ROBBINS H, 1948, B AM MATH SOC, V54, P1151, DOI 10.1090/S0002-9904-1948-09142-X
   SMIRNOV NV, 1952, T MAT I STEKLOV, V25, P1
   SMIRNOV NV, 1952, AM MATH SOC TRANSL, V67, P1
   STATLAND ES, 1966, DOKL AKAD NAUK SSSR, V170, P794
   STATLAND ES, 1966, SOVIET MATH DOKL, V7, P1297
   TEICHER H, 1961, ANN MATH STAT, V32, P244, DOI 10.1214/aoms/1177705155
NR 18
TC 7
Z9 7
U1 0
U2 0
PU INST MATHEMATICAL STATISTICS
PI HAYWARD
PA IMS BUSINESS OFFICE-SUITE 7, 3401 INVESTMENT BLVD, HAYWARD, CA 94545
SN 0003-4851
J9 ANN MATH STAT
PY 1972
VL 43
IS 5
BP 1719
EP &
DI 10.1214/aoms/1177692409
PG 0
WC Mathematics; Statistics & Probability
SC Mathematics
GA N9477
UT WOS:A1972N947700038
ER

PT J
AU JIRINA, M
AF JIRINA, M
TI CONVERGENCE IN DISTRIBUTION OF RANDOM MEASURES
SO ANNALS OF MATHEMATICAL STATISTICS
LA English
DT Article
CR HALMOS PR, 1950, MMEASURE THEORY
   Harris T., 1963, THEORY BRANCHING PRO
   JIRINA M, 1964, 3RD T PRAG C INF THE, P333
NR 3
TC 1
Z9 1
U1 0
U2 0
PU INST MATHEMATICAL STATISTICS
PI HAYWARD
PA IMS BUSINESS OFFICE-SUITE 7, 3401 INVESTMENT BLVD, HAYWARD, CA 94545
SN 0003-4851
J9 ANN MATH STAT
PY 1972
VL 43
IS 5
BP 1727
EP &
DI 10.1214/aoms/1177692410
PG 0
WC Mathematics; Statistics & Probability
SC Mathematics
GA N9477
UT WOS:A1972N947700039
ER

PT J
AU IOSIFESCU, M
AF IOSIFESCU, M
TI 2 RECENT PAPERS ON ERGODICITY IN NONHOMOGENEOUS MARKOV CHAINS
SO ANNALS OF MATHEMATICAL STATISTICS
LA English
DT Article
CR BLACKWELL D, 1964, ANN MATH STAT, V35, P1291, DOI 10.1214/aoms/1177703284
   Dobrushin R. L., 1956, THEOR PROBAB APPL, V1, P329, DOI 10.1137/1101029
   Dobrushin RL, 1956, THEOR PROBAB APPL, V1, P65, DOI 10.1137/1101006
   Hajnal J., 1958, P CAMBRIDGE PHILOS S, V54, P233, DOI DOI 10.1017/S0305004100033399
   Iosifescu M, 1969, RANDOM PROCESSES LEA
   IOSIFESCU M, 1966, REV ROUMAINE MATH PU, V11, P325
   MADSEN RW, 1971, ANN MATH STAT, V42, P405, DOI 10.1214/aoms/1177693534
   PAZ A, 1970, ANN MATH STAT, V41, P539, DOI 10.1214/aoms/1177697094
NR 8
TC 25
Z9 25
U1 0
U2 0
PU INST MATHEMATICAL STATISTICS
PI CLEVELAND
PA 3163 SOMERSET DR, CLEVELAND, OH 44122 USA
SN 0003-4851
J9 ANN MATH STAT
JI Ann. Math. Stat.
PY 1972
VL 43
IS 5
BP 1732
EP +
DI 10.1214/aoms/1177692411
PG 1
WC Mathematics; Statistics & Probability
SC Mathematics
GA N9477
UT WOS:A1972N947700040
ER

PT J
AU BLUM, JR
   EISENBER.B
AF BLUM, JR
   EISENBER.B
TI CONDITIONS FOR METRIC TRANSITIVITY FOR STATIONARY GAUSSIAN PROCESSES ON
   GROUPS
SO ANNALS OF MATHEMATICAL STATISTICS
LA English
DT Article
CR BLANCLAPIERRE, 1968, THEORY RANDOM FUNCTI, V2
   EISENBERG B, 1972, ANN MATH ST, V43, P721
   Grenander U., 1950, Arkiv for Matematik, V1, P195, DOI 10.1007/BF02590638
   Maruyama G., 1949, MEM FS KYUSHU U, V4, P45
   RUDIN WR, 1967, FOURIER ANALYSIS GRO
   YAGLOM I, 1962, INTRO THEORY STATION
NR 6
TC 2
Z9 2
U1 0
U2 0
PU INST MATHEMATICAL STATISTICS
PI HAYWARD
PA IMS BUSINESS OFFICE-SUITE 7, 3401 INVESTMENT BLVD, HAYWARD, CA 94545
SN 0003-4851
J9 ANN MATH STAT
PY 1972
VL 43
IS 5
BP 1737
EP &
DI 10.1214/aoms/1177692412
PG 0
WC Mathematics; Statistics & Probability
SC Mathematics
GA N9477
UT WOS:A1972N947700041
ER

PT J
AU KIEFER, J
AF KIEFER, J
TI CORRECTION
SO ANNALS OF MATHEMATICAL STATISTICS
LA English
DT Correction, Addition
CR KIEFER J, 1972, ANN MATH ST, V36, P747
NR 1
TC 0
Z9 0
U1 0
U2 0
PU INST MATHEMATICAL STATISTICS
PI HAYWARD
PA IMS BUSINESS OFFICE-SUITE 7, 3401 INVESTMENT BLVD, HAYWARD, CA 94545
SN 0003-4851
J9 ANN MATH STAT
PY 1972
VL 43
IS 5
BP 1742
EP &
DI 10.1214/aoms/1177692413
PG 0
WC Mathematics; Statistics & Probability
SC Mathematics
GA N9477
UT WOS:A1972N947700042
ER

PT J
AU OBENCHAI.RL
AF OBENCHAI.RL
TI CORRECTION
SO ANNALS OF MATHEMATICAL STATISTICS
LA English
DT Correction, Addition
CR OBENCHAIN RL, 1972, ANN MATH ST, V42, P1569
NR 1
TC 0
Z9 0
U1 0
U2 0
PU INST MATHEMATICAL STATISTICS
PI HAYWARD
PA IMS BUSINESS OFFICE-SUITE 7, 3401 INVESTMENT BLVD, HAYWARD, CA 94545
SN 0003-4851
J9 ANN MATH STAT
PY 1972
VL 43
IS 5
BP 1742
EP &
DI 10.1214/aoms/1177692414
PG 0
WC Mathematics; Statistics & Probability
SC Mathematics
GA N9477
UT WOS:A1972N947700043
ER

PT J
AU KORWAR, RM
AF KORWAR, RM
TI ADDITION
SO ANNALS OF MATHEMATICAL STATISTICS
LA English
DT Correction, Addition
CR KORWAR RM, 1970, ANN MATH STAT, V41, P2132, DOI 10.1214/aoms/1177696713
NR 1
TC 0
Z9 0
U1 0
U2 0
PU INST MATHEMATICAL STATISTICS
PI HAYWARD
PA IMS BUSINESS OFFICE-SUITE 7, 3401 INVESTMENT BLVD, HAYWARD, CA 94545
SN 0003-4851
J9 ANN MATH STAT
PY 1972
VL 43
IS 5
BP 1744
EP &
DI 10.1214/aoms/1177692415
PG 0
WC Mathematics; Statistics & Probability
SC Mathematics
GA N9477
UT WOS:A1972N947700044
ER

PT J
AU RODRIGUE.F
   SIMONS, G
AF RODRIGUE.F
   SIMONS, G
TI FOUNDATIONS OF PROBABILITY - RENYI,A
SO ANNALS OF MATHEMATICAL STATISTICS
LA English
DT Book Review
C1 UNIV N CAROLINA,CHAPEL HILL,NC 27514.
CR RENYI A, 1970, FOUNDATIONS PROBABIL
NR 1
TC 0
Z9 0
U1 0
U2 0
PU INST MATHEMATICAL STATISTICS
PI HAYWARD
PA IMS BUSINESS OFFICE-SUITE 7, 3401 INVESTMENT BLVD, HAYWARD, CA 94545
SN 0003-4851
J9 ANN MATH STAT
PY 1972
VL 43
IS 5
BP 1745
EP 1747
DI 10.1214/aoms/1177692416
PG 3
WC Mathematics; Statistics & Probability
SC Mathematics
GA N9477
UT WOS:A1972N947700045
ER

PT J
AU BERAN, RJ
AF BERAN, RJ
TI RANK SPECTRAL PROCESSES AND TESTS FOR SERIAL DEPENDENCE
SO ANNALS OF MATHEMATICAL STATISTICS
LA English
DT Article
C1 UNIV CALIF,DEPT STATISTICS,BERKELEY,CA 94720.
CR AIYAR RJ, 1969, THESIS U CALIFORNIA
   ANDEL J, 1967, ANN MATH STAT, V38, P1705, DOI 10.1214/aoms/1177698605
   Billingsley P., 1968, CONVERGENCE PROBABIL
   BILLINGSLEY P, 1969, BIOMETRIKA, V56, P375
   Bromwich T. J. I. A., 1926, INTRO THEORY INFINIT
   DIANANDA PH, 1953, P CAMB PHILOS SOC, V49, P239
   GRENANDER U, 1957, STATISTICAL ANALYSIS
   HAJEK J, 1967, THEORY RAK TESTS
   HEYDE CC, 1970, ANN MATH STAT, V41, P2161, DOI 10.1214/aoms/1177696722
   Ibragimov I. A., 1963, THEOR PROBAB APPL, V8, P366, DOI 10.1137/1108044
   JOGDEO K, 1968, ANN MATH STAT, V39, P905, DOI 10.1214/aoms/1177698323
   Meyer P. A., 1966, PROBABILITY POTENTIA
   ROSEN B, 1970, ANN MATH STAT, V41, P1074, DOI 10.1214/aoms/1177696985
   VARBERG DE, 1966, ANN MATH STAT, V37, P567, DOI 10.1214/aoms/1177699449
   Wald A, 1943, ANN MATH STAT, V14, P378, DOI 10.1214/aoms/1177731358
   Whittle P., 1960, TEOR VEROYA PRIMEN, V5, P331
   WHITTLE P., 1964, THEOR PROBAB APPL, V9, P113
NR 17
TC 6
Z9 6
U1 0
U2 0
PU INST MATHEMATICAL STATISTICS
PI HAYWARD
PA IMS BUSINESS OFFICE-SUITE 6 3401 INVESTMENT BLVD, HAYWARD, CA 94545
SN 0003-4851
J9 ANN MATH STAT
PY 1972
VL 43
IS 6
BP 1749
EP 1766
DI 10.1214/aoms/1177690850
PG 18
WC Mathematics; Statistics & Probability
SC Mathematics
GA O7023
UT WOS:A1972O702300002
ER

PT J
AU VILLEGAS, C
AF VILLEGAS, C
TI BAYESIAN INFERENCE IN LINEAR RELATIONS
SO ANNALS OF MATHEMATICAL STATISTICS
LA English
DT Article
C1 SIMON FRASER UNIV,DEPT MATH,BURNABY 2,BRITISH COLUMB,CANADA.
CR ACTON FS, 1959, ANALYSIS STRAIGHT LI
   Adcock R. J., 1877, ANALYST, V4, P183, DOI DOI 10.2307/2635777
   Adcock RJ, 1878, ANALYST, V5, P53, DOI DOI 10.2307/2635758
   BASU AP, 1969, J ROY STATIST SOC  B, P65
   BLASCHKE W, 1935, INTEGRALGEOMETRIE, V1
   DOWNS TD, 1966, BIOMETRIKA, V53, P269, DOI 10.2307/2334080
   GUMBEL EJ, 1953, J AM STAT ASSOC, V48, P131, DOI 10.2307/2280886
   HEWITT, 1963, ABSTRACT HARMONIC AN
   HOUSNER GW, 1948, ANN MATH STAT, V19, P380, DOI 10.1214/aoms/1177730202
   KALBFLEI.JD, 1970, J ROY STAT SOC B, V32, P175
   KIEFER J, 1956, ANN MATH STAT, V27, P887, DOI 10.1214/aoms/1177728066
   Kummell CH, 1879, ANALYST, V6, P97, DOI DOI 10.2307/2635646
   LINDLEY DV, 1968, J R STAT SOC B, V30, P190
   MADANSKY A, 1959, J AM STAT ASSOC, V54, P173, DOI 10.2307/2282145
   Nachbin L., 1965, THE HAAR INTEGRAL
   Neyman J., 1937, J ROY STAT SOC, V100, P50
   Pearson K, 1901, PHILOS MAG, V2, P559
   Rao C.R, 1965, LINEAR STATISTICAL I
   Santalo L., 1953, INTRO INTEGRAL GEOME
   SPRENT P, 1966, J ROY STAT SOC B, V28, P278
   TUKEY JW, 1951, BIOMETRICS, V7, P33, DOI 10.2307/3001602
   VANUVEN MJ, 1930, K AKAD WETENS AMSTER, V33, P143
   VANUVEN MJ, 1930, K AKAD WETENS AMST S, V33, P307
   VILLEGAS C, 1969, ANN MATH STAT, V40, P462, DOI 10.1214/aoms/1177697711
   VILLEGAS C, 1964, ANN MATH STAT, V35, P780, DOI 10.1214/aoms/1177703577
   VILLEGAS C, 1961, ANN MATH STAT, V32, P1048, DOI 10.1214/aoms/1177704845
   VILLEGAS C, 1966, ANN MATH STAT, V37, P1676, DOI 10.1214/aoms/1177699156
   VILLEGAS C, 1963, FAC INGEN AGRIMENE M, V3, P189
   VILLEGAS C, 1971, FOUNDATIONS STATISTI
   von Mises R, 1918, PHYS Z, V19, P490
   Wald A, 1940, ANN MATH STAT, V11, P284, DOI 10.1214/aoms/1177731868
NR 31
TC 11
Z9 11
U1 0
U2 1
PU INST MATHEMATICAL STATISTICS
PI HAYWARD
PA IMS BUSINESS OFFICE-SUITE 6 3401 INVESTMENT BLVD, HAYWARD, CA 94545
SN 0003-4851
J9 ANN MATH STAT
PY 1972
VL 43
IS 6
BP 1767
EP 1791
DI 10.1214/aoms/1177690851
PG 25
WC Mathematics; Statistics & Probability
SC Mathematics
GA O7023
UT WOS:A1972O702300003
ER

PT J
AU BHATTACHARYA, PK
AF BHATTACHARYA, PK
TI ORDER OF DEPENDENCE IN A STATIONARY NORMALLY DISTRIBUTED 2-WAY SERIES
SO ANNALS OF MATHEMATICAL STATISTICS
LA English
DT Article
C1 UNIV ARIZONA, DEPT MATH, TUCSON, AZ 85721 USA.
CR ANDERSON TW, 1962, P S TIME SERIES ANAL
   Anderson T. W., 1958, INTRO MULTIVARIATE S
   Bergstrom H, 1949, SKAND AKTUARIETIDSKR, V32, P37
   Rao C.R, 1965, LINEAR STATISTICAL I
NR 4
TC 7
Z9 7
U1 0
U2 0
PU INST MATHEMATICAL STATISTICS
PI CLEVELAND
PA 3163 SOMERSET DR, CLEVELAND, OH 44122 USA
SN 0003-4851
J9 ANN MATH STAT
JI Ann. Math. Stat.
PY 1972
VL 43
IS 6
BP 1792
EP 1807
DI 10.1214/aoms/1177690852
PG 16
WC Mathematics; Statistics & Probability
SC Mathematics
GA O7023
UT WOS:A1972O702300004
ER

PT J
AU SOBEL, M
   WEISS, GH
AF SOBEL, M
   WEISS, GH
TI PLAY-WINNER RULE AND INVERSE SAMPLING FOR SELECTING BEST OF K
   GREATER-THAN-OR-EQUAL-TO 3 BINOMIAL POPULATIONS
SO ANNALS OF MATHEMATICAL STATISTICS
LA English
DT Article
C1 IMPERIAL COLL,LONDON,ENGLAND.
CR Bechhofer Robert, 1968, SEQUENTIAL IDENTIFIC
   Feller W., 1968, INTRO PROBABILITY TH, VI
   GUPTA SS, 1963, ANN MATH STAT, V34, P792, DOI 10.1214/aoms/1177704004
   MILTON RC, 1963, 27 U MINN DEP STAT T
   NEBENZAHL E, 1972, BIOMETRIKA, V59, P1
   OLKIN I, 1965, BIOMETRIKA, V52, P167, DOI 10.2307/2333822
   PAULSON E, 1967, ANN MATH STAT, V38, P117, DOI 10.1214/aoms/1177699062
   PAULSON E, 1969, ANN MATH STAT, V40, P1865
   Rao C.R, 1965, LINEAR STATISTICAL I
   SOBEL M, 1957, AT&T TECH J, V36, P537
   SOBEL M, 1970, BIOMETRIKA, V57, P357, DOI 10.2307/2334844
   SOBEL M, 1969, J AM STATIST ASSOC, V66, P545
NR 12
TC 13
Z9 13
U1 0
U2 0
PU INST MATHEMATICAL STATISTICS
PI HAYWARD
PA IMS BUSINESS OFFICE-SUITE 6 3401 INVESTMENT BLVD, HAYWARD, CA 94545
SN 0003-4851
J9 ANN MATH STAT
PY 1972
VL 43
IS 6
BP 1808
EP 1826
DI 10.1214/aoms/1177690853
PG 19
WC Mathematics; Statistics & Probability
SC Mathematics
GA O7023
UT WOS:A1972O702300005
ER

PT J
AU CROW, LH
   SHIMI, IN
AF CROW, LH
   SHIMI, IN
TI MAXIMUM LIKELIHOOD ESTIMATION OF LIFE-DISTRIBUTIONS FROM RENEWAL TESTING
SO ANNALS OF MATHEMATICAL STATISTICS
LA English
DT Article
C1 FLORIDA STATE UNIV,DEPT STATISTICS,TALLAHASSEE,FL 32306.
CR BRUNK HD, 1958, ANN MATH STAT, V29, P437, DOI 10.1214/aoms/1177706621
   CROW LA, 1970, M193 FLOR STAT U STA
   CROW LA, 1971, M197 FLOR STAT U STA
   EISEN M, 1969, INTRO MATHEMATICAL P
   EPSTEIN B, 1959, STATISTICAL TECHNIQU
   GNEDENKO BV, 1969, MATHEMATICAL METHODS
   GRENANDER V, 1956, SKAND AKTUARIETIDSKR, V39, P125
   KIEFER J, 1956, ANN MATH STAT, V27, P887, DOI 10.1214/aoms/1177728066
   Loeve M., 1963, PROBABILITY THEORY
   MARSHALL AW, 1965, ANN MATH STAT, V36, P69, DOI 10.1214/aoms/1177700271
   RAO RC, 1968, LINEAR STATISTICAL I
NR 11
TC 10
Z9 10
U1 0
U2 0
PU INST MATHEMATICAL STATISTICS
PI HAYWARD
PA IMS BUSINESS OFFICE-SUITE 6 3401 INVESTMENT BLVD, HAYWARD, CA 94545
SN 0003-4851
J9 ANN MATH STAT
PY 1972
VL 43
IS 6
BP 1827
EP 1838
DI 10.1214/aoms/1177690854
PG 12
WC Mathematics; Statistics & Probability
SC Mathematics
GA O7023
UT WOS:A1972O702300006
ER

PT J
AU BEHNEN, K
AF BEHNEN, K
TI CHARACTERIZATION OF CERTAIN RANK-ORDER TESTS WITH BOUNDS FOR ASYMPTOTIC
   RELATIVE EFFICIENCY
SO ANNALS OF MATHEMATICAL STATISTICS
LA English
DT Article
C1 UNIV CALIF,BERKELEY,CA 94720.
   UNIV MUNSTER,MUNSTER,WEST GERMANY.
CR BEHNEN K, 1971, ANN MATH STAT, V42, P225
   BHUCHONGKUL S, 1964, ANN MATH STAT, V35, P138, DOI 10.1214/aoms/1177703735
   CHERNOFF H, 1958, ANN MATH STAT, V29, P972, DOI 10.1214/aoms/1177706436
   Dunford N., 1957, LINEAR OPERATORS 1
   GOKHALE DV, 1968, ANN I STAT MATH, V20, P255, DOI 10.1007/BF02911639
   HAJEK J, 1962, ANN MATH STAT, V33, P1124, DOI 10.1214/aoms/1177704476
   Hajek J, 1967, THEORY RANK TESTS
   HAJEK J, 1968, STUDIES MATHEMATICAL
   HODGES JL, 1956, ANN MATH STAT, V27, P324, DOI 10.1214/aoms/1177728261
   HODGES JL, 1961, 4TH P BERK S MATH ST, V1, P307
   KONIJN HS, 1956, ANN MATH STAT, V27, P300, DOI 10.1214/aoms/1177728260
   Le Cam L, 1960, U CALIFORNIA PUBL ST, V3, P37
   LEHMANN EL, 1966, ANN MATH STAT, V37, P1137, DOI 10.1214/aoms/1177699260
   NEYMAN J, 1959, HARALD CRAMER VOLUME
   NOETHER GE, 1955, ANN MATH STAT, V26, P64, DOI 10.1214/aoms/1177728593
   WITTING H, 1970, ANGEWANDTE MATHEMATI
   YANAGIMO.T, 1969, ANN I STAT MATH, V21, P489, DOI 10.1007/BF02532273
NR 17
TC 20
Z9 20
U1 0
U2 0
PU INST MATHEMATICAL STATISTICS
PI HAYWARD
PA IMS BUSINESS OFFICE-SUITE 6 3401 INVESTMENT BLVD, HAYWARD, CA 94545
SN 0003-4851
J9 ANN MATH STAT
PY 1972
VL 43
IS 6
BP 1839
EP 1851
DI 10.1214/aoms/1177690855
PG 13
WC Mathematics; Statistics & Probability
SC Mathematics
GA O7023
UT WOS:A1972O702300007
ER

PT J
AU EATON, ML
   OLSHEN, RA
AF EATON, ML
   OLSHEN, RA
TI RANDOM QUOTIENTS AND BEHRENS-FISHER PROBLEM
SO ANNALS OF MATHEMATICAL STATISTICS
LA English
DT Article
C1 UNIV CHICAGO,CHICAGO,IL 60637.
   COLUMBIA UNIV,NEW YORK,NY 10027.
CR Berge C., 1963, TOPOLOGICAL SPACES
   HAJEK J, 1962, SELECTED TRANSLATION, V2, P63
   Hardy G.M., 1964, INEQUALITIES
   HSU PL, 1938, STATISTICAL RESEARCH
   Karlin S., 1968, TOTAL POSITIVITY
   Khintchine A. Ya., 1938, IZV NAUCHNO ISSLED I, V2, P1
   LAWTON WH, 1965, ANN MATH STAT, V36, P1521, DOI 10.1214/aoms/1177699911
   LAWTON WH, 1968, ANN MATH STAT, V39, P466, DOI 10.1214/aoms/1177698410
   MARSHALL AW, 1965, J MATH ANAL APPL, V12, P87, DOI 10.1016/0022-247X(65)90056-9
   MICKEY MR, 1966, ANN MATH STAT, V37, P639, DOI 10.1214/aoms/1177699457
   OLSHEN RA, 1970, J APPL PROBAB, V7, P21, DOI 10.2307/3212145
   Pearson K, 1934, TABLES INCOMPLETE BE
   Rao C.R, 1965, LINEAR STATISTICAL I
   Scheffe H., 1970, J AM STAT ASSOC, V65, P1501, DOI DOI 10.1080/01621459.1970.10481179
   STRASSEN V, 1965, ANN MATH STAT, V36, P423, DOI 10.1214/aoms/1177700153
NR 15
TC 4
Z9 4
U1 0
U2 0
PU INST MATHEMATICAL STATISTICS
PI HAYWARD
PA IMS BUSINESS OFFICE-SUITE 6 3401 INVESTMENT BLVD, HAYWARD, CA 94545
SN 0003-4851
J9 ANN MATH STAT
PY 1972
VL 43
IS 6
BP 1852
EP 1860
DI 10.1214/aoms/1177690856
PG 9
WC Mathematics; Statistics & Probability
SC Mathematics
GA O7023
UT WOS:A1972O702300008
ER

PT J
AU BHATTACHARYA, PK
   SMITH, RP
AF BHATTACHARYA, PK
   SMITH, RP
TI SEQUENTIAL PROBABILITY RATIO TEST FOR MEAN-VALUE FUNCTION OF A GAUSSIAN
   PROCESS
SO ANNALS OF MATHEMATICAL STATISTICS
LA English
DT Article
C1 ARKANSAS STATE UNIV, JONESBORO, AR 72467 USA.
   UNIV ARIZONA, DEPT MATH, TUSCON, AZ 85721 USA.
CR ARONSZAJN N, 1950, T AM MATH SOC, V68, P337
   BHATTACH.PK, 1971, ANN MATH STAT, V42, P2008, DOI 10.1214/aoms/1177693068
   Doob J.L., 1953, STOCHASTIC PROCESSES
   DVORETZKY A, 1953, ANN MATH STAT, V24, P254, DOI 10.1214/aoms/1177729031
   FELDMAN J, 1958, PAC J MATH, V8, P699
   Gikhman I. I., 1969, INTRO THEORY RANDOM
   LEHMANN EL, 1959, TESTING STATISTICAL
   PARZEN E, 1967, 23 STANF U APPL MATH
   SMITH RP, 1971, THESIS U ARIZONA
   WALD A, 1948, ANN MATH STAT, V19, P326, DOI 10.1214/aoms/1177730197
   WALD A, 1947, SEQUENTIAL ANALYSIS
NR 11
TC 1
Z9 1
U1 0
U2 0
PU INST MATHEMATICAL STATISTICS
PI CLEVELAND
PA 3163 SOMERSET DR, CLEVELAND, OH 44122 USA
SN 0003-4851
J9 ANN MATH STAT
JI Ann. Math. Stat.
PY 1972
VL 43
IS 6
BP 1861
EP 1873
DI 10.1214/aoms/1177690857
PG 13
WC Mathematics; Statistics & Probability
SC Mathematics
GA O7023
UT WOS:A1972O702300009
ER

PT J
AU KURTZ, TG
AF KURTZ, TG
TI INEQUALITIES FOR LAW OF LARGE NUMBERS
SO ANNALS OF MATHEMATICAL STATISTICS
LA English
DT Article
C1 UNIV WISCONSIN,DEPT MATH,MADISON,WI 53706.
CR FRANCK WE, 1966, T AM MATH SOC, V124, P347, DOI 10.2307/1994405
   HEATHCOTE CR, 1967, COMPLETE EXPONENTIAL
   HOEFFDING W, 1963, J AM STAT ASSOC, V58, P13, DOI 10.2307/2282952
   ROHATGI VK, 1969, P AM MATH SOC, V20, P570, DOI 10.2307/2035701
   SAVAGE IR, 1961, J RES NBS          B, V69, P211
   VONBAHR B, 1965, ANN MATH STAT, V36, P808
   VONBAHR B, 1965, ANN MATH STAT, V36, P299, DOI 10.1214/aoms/1177700291
NR 7
TC 13
Z9 13
U1 1
U2 1
PU INST MATHEMATICAL STATISTICS
PI HAYWARD
PA IMS BUSINESS OFFICE-SUITE 6 3401 INVESTMENT BLVD, HAYWARD, CA 94545
SN 0003-4851
J9 ANN MATH STAT
PY 1972
VL 43
IS 6
BP 1874
EP 1883
DI 10.1214/aoms/1177690858
PG 10
WC Mathematics; Statistics & Probability
SC Mathematics
GA O7023
UT WOS:A1972O702300010
ER

PT J
AU STARR, N
AF STARR, N
TI HOW TO WIN A WAR IF YOU MUST - OPTIMAL STOPPING BASED ON SUCCESS RUNS
SO ANNALS OF MATHEMATICAL STATISTICS
LA English
DT Article
C1 UNIV MICHIGAN,DEPT STATISTICS,ANN ARBOR,MI 48104.
CR Chow YS, 1963, Z WAHRSCHEINLICHKEIT, V2, P33, DOI 10.1007/BF00535296
   Feller W., 1950, INTRO PROBABILITY TH
NR 2
TC 4
Z9 4
U1 0
U2 0
PU INST MATHEMATICAL STATISTICS
PI HAYWARD
PA IMS BUSINESS OFFICE-SUITE 6 3401 INVESTMENT BLVD, HAYWARD, CA 94545
SN 0003-4851
J9 ANN MATH STAT
PY 1972
VL 43
IS 6
BP 1884
EP 1893
DI 10.1214/aoms/1177690859
PG 10
WC Mathematics; Statistics & Probability
SC Mathematics
GA O7023
UT WOS:A1972O702300011
ER

PT J
AU JAQUETTE, SC
AF JAQUETTE, SC
TI MARKOV DECISION PROCESSES WITH A NEW OPTIMALITY CRITERION - SMALL
   INTEREST RATES
SO ANNALS OF MATHEMATICAL STATISTICS
LA English
DT Article
C1 SCI APPL INC,PALO ALTO,CA 94303.
CR BLACKWELL D, 1962, ANN MATH STAT, V33, P719, DOI 10.1214/aoms/1177704593
   JAQUETTE SC, 1973, ANN STATIST, V1
   JAQUETTE SC, 1971, 15 STANF U DEP OP RE
   MILLER BL, 1969, ANN MATH STAT, V40, P366, DOI 10.1214/aoms/1177697700
   VEINOTT AF, 1969, ANN MATH STAT, V40, P1635, DOI 10.1214/aoms/1177697379
NR 5
TC 10
Z9 10
U1 0
U2 0
PU INST MATHEMATICAL STATISTICS
PI HAYWARD
PA IMS BUSINESS OFFICE-SUITE 6 3401 INVESTMENT BLVD, HAYWARD, CA 94545
SN 0003-4851
J9 ANN MATH STAT
PY 1972
VL 43
IS 6
BP 1894
EP 1901
DI 10.1214/aoms/1177690860
PG 8
WC Mathematics; Statistics & Probability
SC Mathematics
GA O7023
UT WOS:A1972O702300012
ER

PT J
AU SZASZ, D
AF SZASZ, D
TI LIMIT THEOREMS FOR DISTRIBUTIONS OF SUMS OF A RANDOM NUMBER OF
   RANDOM-VARIABLES
SO ANNALS OF MATHEMATICAL STATISTICS
LA English
DT Article
C1 HUNGARIAN ACAD SCI,MATH INST,BUDAPEST 5,HUNGARY.
CR Billingsley P., 1968, CONVERGENCE PROBABIL
   Doob J. L., 1953, STOCHASTIC PROCESSES
   GNEDENKO BV, 1969, DOKL AKAD NAUK SSSR+, V187, P15
   Gnedenko B. V., 1954, LIMIT DISTRIBUTIONS
   ITO K, 1960, STOCHASTIC PROCESSES, V1
   MOGYORODI J, IN PRESS
   ROBBINS H, 1948, B AM MATH SOC, V54, P1151, DOI 10.1090/S0002-9904-1948-09142-X
   Szasz D., 1971, LIETUVOS MATEMATIKOS, V11, P181
   SZASZ D, 1972, ACTA SCI MATH, V33
   SZASZ D, 1972, THEOR PROBABILITY AP, V17
NR 10
TC 18
Z9 18
U1 0
U2 0
PU INST MATHEMATICAL STATISTICS
PI HAYWARD
PA IMS BUSINESS OFFICE-SUITE 6 3401 INVESTMENT BLVD, HAYWARD, CA 94545
SN 0003-4851
J9 ANN MATH STAT
PY 1972
VL 43
IS 6
BP 1902
EP 1913
DI 10.1214/aoms/1177690861
PG 12
WC Mathematics; Statistics & Probability
SC Mathematics
GA O7023
UT WOS:A1972O702300013
ER

PT J
AU SHASHIKA.S
AF SHASHIKA.S
TI FREDHOLM DETERMINANT OF A POSITIVE DEFINITE KERNEL OF A SPECIAL TYPE AND
   ITS APPLICATION
SO ANNALS OF MATHEMATICAL STATISTICS
LA English
DT Article
C1 IOWA STATE UNIV,STATISTICAL LAB,AMES,IA 50010.
CR ANDERSON TW, 1952, ANN MATH STAT, V23, P193, DOI 10.1214/aoms/1177729437
   Cramer H., 1946, MATHEMATICAL METHODS
   Cramer H, 1928, SKAND AKTUARIETIDSKR, V11, P141
   DARLING DA, 1955, ANN MATH STAT, V26, P1, DOI 10.1214/aoms/1177728589
   DONSKER MD, 1952, ANN MATH STAT, V23, P277, DOI 10.1214/aoms/1177729445
   KAC M, 1947, ANN MATH STAT, V18, P438, DOI 10.1214/aoms/1177730391
   KAC M, 1955, ANN MATH STAT, V26, P189, DOI 10.1214/aoms/1177728538
   KIEFER J, 1959, ANN MATH STAT, V30, P420, DOI 10.1214/aoms/1177706261
   KOMOGOROV A, 1941, ANN MATH STAT, V12, P461
   POGORZELSKI W, 1966, INTEGRAL EQUATIONS A, V1
   RIESZ R, 1955, FUNCTIONAL ANALYSIS
   Smirnov N.V., 1936, CR HEBD ACAD SCI, V202, P449
   von Mises R., 1931, WAHRSCHEINLICHKEITSR
   Whittaker E. T., 1927, COURSE MODERN ANALYS
NR 14
TC 0
Z9 1
U1 1
U2 1
PU INST MATHEMATICAL STATISTICS
PI HAYWARD
PA IMS BUSINESS OFFICE-SUITE 6 3401 INVESTMENT BLVD, HAYWARD, CA 94545
SN 0003-4851
J9 ANN MATH STAT
PY 1972
VL 43
IS 6
BP 1914
EP 1926
PG 13
WC Mathematics; Statistics & Probability
SC Mathematics
GA O7023
UT WOS:A1972O702300014
ER

PT J
AU GORDON, L
AF GORDON, L
TI EQUIVALENT TO MARTINGALE SQUARE FUNCTION INEQUALITY
SO ANNALS OF MATHEMATICAL STATISTICS
LA English
DT Article
C1 STANFORD UNIV,DEPT STATISTICS,STANFORD,CA 94305.
CR BREIMAN L, 1967, Z WAHRSCHEINLICHKEIT, V9, P20, DOI 10.1007/BF00535464
   BURKHOLD.DL, 1966, ANN MATH STAT, V37, P1494, DOI 10.1214/aoms/1177699141
   BURKHOLDER DL, 1970, ACTA MATH-UPPSALA, V124, P249, DOI 10.1007/BF02394573
   CHOW YS, 1967, ANN MATH STAT, V38, P610, DOI 10.1214/aoms/1177698981
   Chow YS, 1960, P AM MATH SOC, V11, P107, DOI 10.2307/2032726
   CHUNG KL, 1947, AM J MATH, V69, P189, DOI 10.2307/2371664
   Doob J. L., 1953, STOCHASTIC PROCESSES
   Freedman D., 1971, BROWNIAN MOTION DIFF
   Marczinkiewicz J., 1938, STUD MATH, V7, P104
   McKean Jr H. P., 1969, STOCHASTIC INTEGRALS
   MILLAR PW, 1968, T AM MATH SOC, V133, P145, DOI 10.2307/1994936
   ROSENKRA.WA, 1972, NOT AM MATH SOC, V19, pA226
NR 12
TC 8
Z9 8
U1 0
U2 0
PU INST MATHEMATICAL STATISTICS
PI HAYWARD
PA IMS BUSINESS OFFICE-SUITE 6 3401 INVESTMENT BLVD, HAYWARD, CA 94545
SN 0003-4851
J9 ANN MATH STAT
PY 1972
VL 43
IS 6
BP 1927
EP 1934
DI 10.1214/aoms/1177690863
PG 8
WC Mathematics; Statistics & Probability
SC Mathematics
GA O7023
UT WOS:A1972O702300015
ER

PT J
AU SNYDERS, J
AF SNYDERS, J
TI ERROR FORMULAS FOR OPTIMAL LINEAR FILTERING, PREDICTION AND
   INTERPOLATION OF STATIONARY TIME SERIES
SO ANNALS OF MATHEMATICAL STATISTICS
LA English
DT Article
C1 TECHNION,FAC ELECT ENGN,HAIFA,ISRAEL.
CR GRENANDER U, 1958, TOEPLITZ FORMS APPLI, V44
   HOFFMAN K, 1962, BANACH SPACES ANALYT
   SNYDER D, 1965, PR INST ELECTR ELECT, V53, P629, DOI 10.1109/PROC.1965.3943
   SNYDER DL, 1966, IEEE T AERO ELEC SYS, VAES2, P231
   SNYDERS J, 1972, IEEE T INFORM THEORY, VIT18, P574
   VITERBI AJ, 1965, IEEE T INFORM THEORY, VIT11, P594
   VITERBI AJ, 1964, IEEE T SPACE EL TEL, VSE10, P95
   WIENER N, 1957, ACTA MATH-DJURSHOLM, V98, P111, DOI 10.1007/BF02404472
   YAO K, 1971, IEEE T INFORM THEORY, VIT17, P232
   YAO K, 1971, IEEE T INFORM THEORY, VIT17, P95
   YOVITS MC, 1955, 1955 IRE NAT CONV  4, P193
   ZAKAI M, 1971, EE156 DEP EL ENG
NR 12
TC 7
Z9 7
U1 0
U2 0
PU INST MATHEMATICAL STATISTICS
PI HAYWARD
PA IMS BUSINESS OFFICE-SUITE 6 3401 INVESTMENT BLVD, HAYWARD, CA 94545
SN 0003-4851
J9 ANN MATH STAT
PY 1972
VL 43
IS 6
BP 1935
EP 1943
DI 10.1214/aoms/1177690864
PG 9
WC Mathematics; Statistics & Probability
SC Mathematics
GA O7023
UT WOS:A1972O702300016
ER

PT J
AU RAJPUT, BS
   CAMBANIS, S
AF RAJPUT, BS
   CAMBANIS, S
TI GAUSSIAN PROCESSES AND GAUSSIAN MEASURES
SO ANNALS OF MATHEMATICAL STATISTICS
LA English
DT Article
C1 UNIV N CAROLINA,DEPT STATISTICS,CHAPEL HILL,NC 27514.
CR AHMAD S, 1965, ANN I H POINCARE B, V2, P95
   BAKER CR, 1970, SIAM J APPL MATH, V19, P451, DOI 10.1137/0119044
   Doob J. L., 1953, STOCHASTIC PROCESSES
   DOOB JL, 1939, ANN MATH, V41, P737
   Dunford N., 1957, LINEAR OPERATORS
   Edwards RE, 1965, FUNCTIONAL ANALYSIS
   Gelfand I.M., 1959, AM MATH SOC TRANSL 2, V12, P199
   HALMOS P. R., 1950, MEASURE THEORY
   Ionescu T.A., 1969, TOPICS THEORY LIFTIN
   KALLIANPUR G, 1962, P S TIME SERIES ANAL, P279
   KARHUNEN K, 1947, 37 ANN ACAD SCI FENN, P1
   KUELBS J, 1970, J FUNCT ANAL, V5, P354, DOI 10.1016/0022-1236(70)90014-5
   Mourier E., 1953, ANN I H POINCARE, V13, P161
   RAJPUT BS, 1971, 782 I STAT MIM SER
   ROOT WL, 1962, P TIM SER AN S BROWN, P292
   SHEPP LA, 1966, ANN MATH STAT, V37, P321, DOI 10.1214/aoms/1177699516
   VARBERG DE, 1967, ANN MATH STAT, V38, P1027, DOI 10.1214/aoms/1177698770
NR 17
TC 9
Z9 9
U1 0
U2 0
PU INST MATHEMATICAL STATISTICS
PI HAYWARD
PA IMS BUSINESS OFFICE-SUITE 6 3401 INVESTMENT BLVD, HAYWARD, CA 94545
SN 0003-4851
J9 ANN MATH STAT
PY 1972
VL 43
IS 6
BP 1944
EP 1952
DI 10.1214/aoms/1177690865
PG 9
WC Mathematics; Statistics & Probability
SC Mathematics
GA O7023
UT WOS:A1972O702300017
ER

PT J
AU KOOPMANS, LH
   QUALLS, C
AF KOOPMANS, LH
   QUALLS, C
TI EXPONENTIAL PROBABILITY BOUND FOR ENERGY OF A TYPE OF GAUSSIAN PROCESS
SO ANNALS OF MATHEMATICAL STATISTICS
LA English
DT Article
C1 UNIV NEW MEXICO,DEPT MATH & STATISTICS,ALBUQUERQUE,NM 87106.
CR Doob J. L., 1953, STOCHASTIC PROCESSES
   HANSON DL, 1971, ANN MATH STAT, V42, P1079, DOI 10.1214/aoms/1177693335
   KOOPMANS LH, TO BE PUBLISHED
   Loeve M., 1963, PROBABILITY THEORY
   PICKANDS J, 1969, T AM MATH SOC, V145, P51, DOI 10.2307/1995058
   PRIESTLEY MB, 1965, J ROY STAT SOC B, V27, P204
NR 6
TC 1
Z9 1
U1 0
U2 0
PU INST MATHEMATICAL STATISTICS
PI HAYWARD
PA IMS BUSINESS OFFICE-SUITE 6 3401 INVESTMENT BLVD, HAYWARD, CA 94545
SN 0003-4851
J9 ANN MATH STAT
PY 1972
VL 43
IS 6
BP 1953
EP 1960
DI 10.1214/aoms/1177690866
PG 8
WC Mathematics; Statistics & Probability
SC Mathematics
GA O7023
UT WOS:A1972O702300018
ER

PT J
AU HOLLEY, R
AF HOLLEY, R
TI MARKOVIAN INTERACTION PROCESSES WITH FINITE-RANGE INTERACTIONS
SO ANNALS OF MATHEMATICAL STATISTICS
LA English
DT Article
C1 PRINCETON UNIV, PRINCETON, NJ 08540 USA.
CR Blumenthal R.M., 1968, MARKOV PROCESSES POT
   Dobrushin R. L., 1971, PROBL PEREDACHI INF, V7, P70
   HARRIS TJ, TO BE PUBLISHED
   HOLLEY R, 1971, COMMUN MATH PHYS, V23, P87, DOI 10.1007/BF01877751
   HOLLEY R, 1970, ADV MATH, V5, P291, DOI 10.1016/0001-8708(70)90035-6
   HOLLEY R, TO BE PUBLISHED
   LIGGETT TM, 1972, T AM MATH SOC, V165, P471, DOI 10.2307/1995898
   Robinson D.W., 1968, Communications in Mathematical Physics, V7, P337, DOI 10.1007/BF01646665
   SPITZER F, 1970, ADV MATH, V5, P246, DOI 10.1016/0001-8708(70)90034-4
   Wiener N, 1939, DUKE MATH J, V5, P1, DOI 10.1215/S0012-7094-39-00501-6
NR 10
TC 15
Z9 15
U1 0
U2 0
PU INST MATHEMATICAL STATISTICS
PI CLEVELAND
PA 3163 SOMERSET DR, CLEVELAND, OH 44122 USA
SN 0003-4851
J9 ANN MATH STAT
JI Ann. Math. Stat.
PY 1972
VL 43
IS 6
BP 1961
EP 1967
DI 10.1214/aoms/1177690867
PG 7
WC Mathematics; Statistics & Probability
SC Mathematics
GA O7023
UT WOS:A1972O702300019
ER

PT J
AU KNIGHT, FB
AF KNIGHT, FB
TI MARKOV PROCESSES WITH RIGHT-DETERMINISTIC GERM FIELDS
SO ANNALS OF MATHEMATICAL STATISTICS
LA English
DT Article
C1 UNIV ILLINOIS,DEPT MATH,URBANA,IL 61801.
CR Blumenthal R.M., 1968, MARKOV PROCESSES POT
   CHUNG KL, 1965, AM J MATH, V87, P397, DOI 10.2307/2373011
   MEYER PA, 1967, 26 LECT NOT MATH
   Meyer P. A., 1966, PROBABILITY POTENTIA
   WEIL M, 1971, 191 LECT NOT MATH
NR 5
TC 2
Z9 2
U1 0
U2 0
PU INST MATHEMATICAL STATISTICS
PI HAYWARD
PA IMS BUSINESS OFFICE-SUITE 6 3401 INVESTMENT BLVD, HAYWARD, CA 94545
SN 0003-4851
J9 ANN MATH STAT
PY 1972
VL 43
IS 6
BP 1968
EP 1976
DI 10.1214/aoms/1177690868
PG 9
WC Mathematics; Statistics & Probability
SC Mathematics
GA O7023
UT WOS:A1972O702300020
ER

PT J
AU RAMBERG, JS
AF RAMBERG, JS
TI SELECTION SAMPLE SIZE APPROXIMATIONS
SO ANNALS OF MATHEMATICAL STATISTICS
LA English
DT Article
C1 UNIV IOWA, DEPT STATISTICS, IOWA CITY, IA 52240 USA.
CR Bechhofer Robert, 1968, SEQUENTIAL IDENTIFIC
   BECHHOFER RE, 1954, ANN MATH STAT, V25, P16, DOI 10.1214/aoms/1177728845
   DUDEWICZ EJ, 1971, STATISTICAL DECISION, P347
   DUDEWICZ J, 1969, ANN MATH STAT, V40, P492
   GUPTA SS, 1963, ANN MATH STAT, V34, P792, DOI 10.1214/aoms/1177704004
   HASTINGS C., 1955, APPROXIMATIONS DIGIT
   ROBBINS H, 1967, LECTURES APPLIED MAT, V12, P267
   SLEPIAN D, 1962, BELL SYST TECH J, V41, P463
NR 8
TC 2
Z9 2
U1 0
U2 0
PU INST MATHEMATICAL STATISTICS
PI CLEVELAND
PA 3163 SOMERSET DR, CLEVELAND, OH 44122 USA
SN 0003-4851
J9 ANN MATH STAT
JI Ann. Math. Stat.
PY 1972
VL 43
IS 6
BP 1977
EP 1980
DI 10.1214/aoms/1177690869
PG 4
WC Mathematics; Statistics & Probability
SC Mathematics
GA O7023
UT WOS:A1972O702300021
ER

PT J
AU ALAM, K
   THOMPSON, JR
AF ALAM, K
   THOMPSON, JR
TI SELECTING LEAST PROBABLE MULTINOMIAL EVENT
SO ANNALS OF MATHEMATICAL STATISTICS
LA English
DT Article
C1 CLEMSON UNIV,CLEMSON,SC 29631.
   RICE UNIV,DEPT MATH SCI,HOUSTON,TX 99001.
CR ALAM K, 1971, TECHNOMETRICS, V13, P843, DOI 10.2307/1266959
   BECHHOFER RE, 1959, ANN MATH STAT, V30, P102, DOI 10.1214/aoms/1177706362
   CACOULLOS T, 1966, P INT S MULT AN AC P, P423
   GUPTA SS, 1963, ANN MATH STAT, V34, P792, DOI 10.1214/aoms/1177704004
   KESTEN H, 1959, ANN MATH STAT, V30, P120, DOI 10.1214/aoms/1177706363
NR 5
TC 12
Z9 12
U1 1
U2 1
PU INST MATHEMATICAL STATISTICS
PI HAYWARD
PA IMS BUSINESS OFFICE-SUITE 6 3401 INVESTMENT BLVD, HAYWARD, CA 94545
SN 0003-4851
J9 ANN MATH STAT
PY 1972
VL 43
IS 6
BP 1981
EP 1990
DI 10.1214/aoms/1177690870
PG 10
WC Mathematics; Statistics & Probability
SC Mathematics
GA O7023
UT WOS:A1972O702300022
ER

PT J
AU LITTELL, RC
AF LITTELL, RC
TI EFFICIENCY OF A COMPETITOR OF 2-SAMPLE KOLMOGOROV-SMIRNOV AND KUIPER
   TESTS
SO ANNALS OF MATHEMATICAL STATISTICS
LA English
DT Article
C1 UNIV FLORIDA,DEPT STATISTICS,GAINESVILLE,FL 32601.
CR ABRAHAMSON IG, 1967, ANN MATH STAT, V38, P1475, DOI 10.1214/aoms/1177698702
   BAHADUR RR, 1967, ANN MATH STAT, V38, P303, DOI 10.1214/aoms/1177698949
   GNEDENKO BV, 1951, SELECTED TRANSL MATH, V1, P13
   Hajek J, 1967, THEORY RANK TESTS
   KLOTZ J, 1967, J AM STAT ASSOC, V62, P932, DOI 10.2307/2283681
NR 5
TC 1
Z9 1
U1 0
U2 1
PU INST MATHEMATICAL STATISTICS
PI HAYWARD
PA IMS BUSINESS OFFICE-SUITE 6 3401 INVESTMENT BLVD, HAYWARD, CA 94545
SN 0003-4851
J9 ANN MATH STAT
PY 1972
VL 43
IS 6
BP 1991
EP 1992
DI 10.1214/aoms/1177690871
PG 2
WC Mathematics; Statistics & Probability
SC Mathematics
GA O7023
UT WOS:A1972O702300023
ER

PT J
AU MEEDEN, G
AF MEEDEN, G
TI BAAYES ESTIMATION OF MIXING DISTRIBUTION, DISCRETE CASE
SO ANNALS OF MATHEMATICAL STATISTICS
LA English
DT Article
C1 IOWA STATE UNIV,DEPT STATISTICS,AMES,IA 50010.
CR DUBINS LE, 1963, B AM MATH SOC, V69, P548, DOI 10.1090/S0002-9904-1963-10992-1
   KRAFT CH, 1964, ANN MATH STAT, V35, P886, DOI 10.1214/aoms/1177703594
   ROLPH JE, 1968, ANN MATH STAT, V39, P1289, DOI 10.1214/aoms/1177698254
NR 3
TC 9
Z9 9
U1 0
U2 0
PU INST MATHEMATICAL STATISTICS
PI HAYWARD
PA IMS BUSINESS OFFICE-SUITE 6 3401 INVESTMENT BLVD, HAYWARD, CA 94545
SN 0003-4851
J9 ANN MATH STAT
PY 1972
VL 43
IS 6
BP 1993
EP 1999
DI 10.1214/aoms/1177690872
PG 7
WC Mathematics; Statistics & Probability
SC Mathematics
GA O7023
UT WOS:A1972O702300024
ER

PT J
AU BERGER, T
AF BERGER, T
TI CORRELATION COEFFICIENT OF A BIVARIATE, EQUAL VARIANCE, COMPLEX GAUSSIAN
   SAMPLE
SO ANNALS OF MATHEMATICAL STATISTICS
LA English
DT Article
C1 CORNELL UNIV,ITHACA,NY 14850.
CR BERGER T, 1971, TB110 RAYTH COMP
   GOODMAN NR, 1963, ANN MATH STAT, V34, P152, DOI 10.1214/aoms/1177704250
   Goodman N. R., 1957, THESIS PRINCETON U
   HOFSTETTER EM, 1970, 197011 LINC LAB UNP
   LOEVE M, 1963, PROBABILITY THEORY, P163
   MEHTA JS, 1969, ANN MATH STAT, V40, P1736, DOI 10.1214/aoms/1177697385
   RUMMLER WD, 1968, 7768412114 BELL TEL
   RUMMLER WD, 1968, MM6841215 BELL TEL L
NR 8
TC 9
Z9 9
U1 0
U2 0
PU INST MATHEMATICAL STATISTICS
PI HAYWARD
PA IMS BUSINESS OFFICE-SUITE 6 3401 INVESTMENT BLVD, HAYWARD, CA 94545
SN 0003-4851
J9 ANN MATH STAT
PY 1972
VL 43
IS 6
BP 2000
EP 2003
DI 10.1214/aoms/1177690873
PG 4
WC Mathematics; Statistics & Probability
SC Mathematics
GA O7023
UT WOS:A1972O702300025
ER

PT J
AU SEN, PK
AF SEN, PK
TI CLASS OF ALIGNED RANK ORDER TESTS FOR IDENTITY OF INTERCEPTS OF SEVERAL
   REGRESSION LINES
SO ANNALS OF MATHEMATICAL STATISTICS
LA English
DT Article
C1 UNIV N CAROLINA,DEPT BIOSTATISTICS,CHAPPEL HILL,NC 27514.
CR ADICHIE JN, 1967, ANN MATH STAT, V38, P894, DOI 10.1214/aoms/1177698883
   FINNEY DJ, 1952, STATISTICAL METHODS
   HAJEK J, 1962, ANN MATH STAT, V33, P1124, DOI 10.1214/aoms/1177704476
   HAJEK J, 1968, ANN MATH STAT, V39, P325, DOI 10.1214/aoms/1177698394
   HAJEK J, 1970, NONPARAMETRIC TECHNI, P1
   JURECKOV.J, 1969, ANN MATH STAT, V40, P1889, DOI 10.1214/aoms/1177697273
   JURECKOVA J, 1971, ANN MATH STAT, V42, P1328, DOI 10.1214/aoms/1177693245
   PURI ML, 1964, ANN MATH STAT, V35, P102, DOI 10.1214/aoms/1177703733
   SEN PK, 1969, ANN MATH STAT, V40, P1668, DOI 10.1214/aoms/1177697381
   VANEEDEN C, 1972, ANN MATH STAT, V43, P791, DOI 10.1214/aoms/1177692545
   Wald A, 1943, T AM MATH SOC, V54, P426, DOI 10.2307/1990256
NR 11
TC 6
Z9 7
U1 0
U2 0
PU INST MATHEMATICAL STATISTICS
PI HAYWARD
PA IMS BUSINESS OFFICE-SUITE 6 3401 INVESTMENT BLVD, HAYWARD, CA 94545
SN 0003-4851
J9 ANN MATH STAT
PY 1972
VL 43
IS 6
BP 2004
EP 2012
DI 10.1214/aoms/1177690874
PG 9
WC Mathematics; Statistics & Probability
SC Mathematics
GA O7023
UT WOS:A1972O702300026
ER

PT J
AU VORLICKOVA, D
AF VORLICKOVA, D
TI ASYMPTOTIC PROPERTIES OF RANK TESTS OF SYMMETRY UNDER DISCRETE
   DISTRIBUTIONS
SO ANNALS OF MATHEMATICAL STATISTICS
LA English
DT Article
C1 CHARLES UNIV, DEPT STATISTICS, PRAGUE 8, CZECHOSLOVAKIA.
CR Hajek J, 1969, COURSE NONPARAMETRIC
   Hajek J., 1967, THEORY RANK TESTS
   PRATT JW, 1959, J AM STAT ASSOC, V54, P655, DOI 10.2307/2282543
   PUTTER J, 1955, ANN MATH STAT, V26, P368, DOI 10.1214/aoms/1177728485
   VORLICKOVA D, 1970, Z WAHRSCHEINLICHKEIT, V14, P275, DOI 10.1007/BF00533666
NR 5
TC 9
Z9 9
U1 0
U2 0
PU INST MATHEMATICAL STATISTICS
PI CLEVELAND
PA 3163 SOMERSET DR, CLEVELAND, OH 44122 USA
SN 0003-4851
J9 ANN MATH STAT
JI Ann. Math. Stat.
PY 1972
VL 43
IS 6
BP 2013
EP 2018
DI 10.1214/aoms/1177690875
PG 6
WC Mathematics; Statistics & Probability
SC Mathematics
GA O7023
UT WOS:A1972O702300027
ER

PT J
AU SEEGER, P
AF SEEGER, P
TI NOTE OF PARTITIONING A SET OF NORMAL POPULATIONS BY THEIR LOCATIONS WITH
   RESPECT TO 2 CONTROLS
SO ANNALS OF MATHEMATICAL STATISTICS
LA English
DT Article
C1 UNIV UPPSALA,UPPSALA,SWEDEN.
   AGR COLL SWEDEN,DEPT ECON & STATISTICS,UPPSALA,SWEDEN.
CR Huynh H., 1970, J AM STAT ASSOC, V65, P1582, DOI DOI 10.1080/01621459.1970.10481187
   TONG YL, 1969, ANN MATH STAT, V40, P1300, DOI 10.1214/aoms/1177697504
NR 2
TC 2
Z9 2
U1 0
U2 0
PU INST MATHEMATICAL STATISTICS
PI HAYWARD
PA IMS BUSINESS OFFICE-SUITE 6 3401 INVESTMENT BLVD, HAYWARD, CA 94545
SN 0003-4851
J9 ANN MATH STAT
PY 1972
VL 43
IS 6
BP 2019
EP 2023
DI 10.1214/aoms/1177690876
PG 5
WC Mathematics; Statistics & Probability
SC Mathematics
GA O7023
UT WOS:A1972O702300028
ER

PT J
AU HULTQUIST, R
   ATZINGER, EM
AF HULTQUIST, R
   ATZINGER, EM
TI MIXED EFFECTS MODEL AND SIMULTANEOUS DIAGONALIZATION OF SYMMETRIC
   MATRICES
SO ANNALS OF MATHEMATICAL STATISTICS
LA English
DT Article
C1 PENN STATE UNIV, DEPT STATISTICS, UNIV PK, PA 16802 USA.
CR ATZINGER EM, 1970, THESIS PENNSYLVANIA
   BASSON RP, 1965, THESIS IOWA STATE U
   Birkoff G., 1963, SURVEY MODERN ALGEBR
   GRAYBILL FA, 1956, J AM STAT ASSOC, V51, P266, DOI 10.2307/2281346
   GRAYBILL FA, 1961, ANN MATH STAT, V32, P261, DOI 10.1214/aoms/1177705158
   GRAYBILL FA, 1961, INTRO LINEAR STATIST, V1
   HENDERSON CR, 1953, BIOMETRICS, V9, P226, DOI 10.2307/3001853
   HERBACH LH, 1959, ANN MATH STAT, V30, P939, DOI 10.1214/aoms/1177706077
   HULTQUIST RA, 1965, J AM STAT ASSOC, V60, P182, DOI 10.2307/2283144
   IMHOF JP, 1960, ANN MATH STAT, V31, P906, DOI 10.1214/aoms/1177705666
   KAPADIA CH, 1963, BIOMETRIKA, V50, P327, DOI 10.2307/2333903
   KENDALL MC, 1966, ADVANCED THEORY STAT, V3
   KENDALL MG, 1966, DESIGN ANALYSIS TIME
   Lehmann E. L., 1950, SANKHYA, V10, P305
   MITRA SK, 1968, SANKHYA A, V30, P313
   Newcomb R. W., 1960, QU APPL MATH, V19, P144
   SEELY JF, 1969, THESIS IOWA STATE U
   THRALL RM, 1957, VECTOR SPACES MATRIC, P189
   WEEKS DL, 1962, SANKHYA A, V24, P339
   WILKS SS, 1963, MATHEMATICAL STATIST, V2
NR 20
TC 9
Z9 9
U1 0
U2 0
PU INST MATHEMATICAL STATISTICS
PI CLEVELAND
PA 3163 SOMERSET DR, CLEVELAND, OH 44122 USA
SN 0003-4851
J9 ANN MATH STAT
JI Ann. Math. Stat.
PY 1972
VL 43
IS 6
BP 2024
EP 2030
DI 10.1214/aoms/1177690877
PG 7
WC Mathematics; Statistics & Probability
SC Mathematics
GA O7023
UT WOS:A1972O702300029
ER

PT J
AU SEN, AR
AF SEN, AR
TI SUCCESSIVE SAMPLING WITH P (PGREATER-THAN-OR-EQUAL-TO 1) AUXILIARY
   VARIABLES
SO ANNALS OF MATHEMATICAL STATISTICS
LA English
DT Article
C1 DEPT INDIAN AFFAIRS & NO DEV,OTTAWA,ONTARIO,CANADA.
CR Cochran WG, 1963, SAMPLING TECHNIQUES
   GOSWAMI JN, 1965, J IND SOC AGRI STAT, V17, P83
   JESSEN RJ, 1942, 304 IOW AGR EXP STAT
   KHAN S, 1967, J INDIAN STAT ASS, V5, P42
   OLKIN I, 1958, BIOMETRIKA, V45, P154, DOI 10.2307/2333053
   PATTERSON HD, 1950, J ROY STATIST SOC  B, P241
NR 6
TC 32
Z9 31
U1 0
U2 0
PU INST MATHEMATICAL STATISTICS
PI HAYWARD
PA IMS BUSINESS OFFICE-SUITE 6 3401 INVESTMENT BLVD, HAYWARD, CA 94545
SN 0003-4851
J9 ANN MATH STAT
PY 1972
VL 43
IS 6
BP 2031
EP 2034
DI 10.1214/aoms/1177690878
PG 4
WC Mathematics; Statistics & Probability
SC Mathematics
GA O7023
UT WOS:A1972O702300030
ER

PT J
AU ROTHMAN, ED
   WOODROOFE, M
AF ROTHMAN, ED
   WOODROOFE, M
TI CRAMER VON-MISES TYPE STATISTIC FOR TESTING SYMMETRY
SO ANNALS OF MATHEMATICAL STATISTICS
LA English
DT Article
C1 UNIV MICHIGAN, DEPT STATISTICS, ANN ARBOR, MI 48104 USA.
CR Breiman L., 1968, PROBABILITY
   BUTLER CC, 1969, ANN MATH STAT, V40, P2209, DOI 10.1214/aoms/1177697302
   Hajek J., 1967, THEORY RANK TESTS
   MACNEILL I, 1969, 27DAAROD31124G1077 S
   SHEPP LA, 1966, ANN MATH STAT, V37, P321, DOI 10.1214/aoms/1177699516
   SMIRNOV NV, 1947, IZV ACAD SCI USSR, V56, P11
   WALSH JE, 1965, HDB NONPARAMETRIC ST
   Widder D., 1946, LAPLACE TRANSFORM
NR 8
TC 60
Z9 60
U1 0
U2 0
PU INST MATHEMATICAL STATISTICS
PI CLEVELAND
PA 3163 SOMERSET DR, CLEVELAND, OH 44122 USA
SN 0003-4851
J9 ANN MATH STAT
JI Ann. Math. Stat.
PY 1972
VL 43
IS 6
BP 2035
EP 2038
DI 10.1214/aoms/1177690879
PG 4
WC Mathematics; Statistics & Probability
SC Mathematics
GA O7023
UT WOS:A1972O702300031
ER

PT J
AU BURDICK, DL
AF BURDICK, DL
TI NOTE ON SYMMETRIC RANDOM-VARIABLES
SO ANNALS OF MATHEMATICAL STATISTICS
LA English
DT Article
C1 SAN DIEGO STATE COLL,DEPT MATH,SAN DIEGO,CA 92115.
NR 0
TC 2
Z9 2
U1 0
U2 0
PU INST MATHEMATICAL STATISTICS
PI HAYWARD
PA IMS BUSINESS OFFICE-SUITE 6 3401 INVESTMENT BLVD, HAYWARD, CA 94545
SN 0003-4851
J9 ANN MATH STAT
PY 1972
VL 43
IS 6
BP 2039
EP 2040
DI 10.1214/aoms/1177690880
PG 2
WC Mathematics; Statistics & Probability
SC Mathematics
GA O7023
UT WOS:A1972O702300032
ER

PT J
AU ALAM, K
AF ALAM, K
TI UNIMODALITY OF DISTRIBUTION OF AN ORDER STATISTIC
SO ANNALS OF MATHEMATICAL STATISTICS
LA English
DT Article
C1 CLEMSON UNIV,DEPT MATH,CLEMSON,SC 29631.
CR ALAM K, 1971, 65 CLEMS U DEP MATH
   Karlin S., 1968, TOTAL POSITIVITY
NR 2
TC 11
Z9 11
U1 0
U2 0
PU INST MATHEMATICAL STATISTICS
PI HAYWARD
PA IMS BUSINESS OFFICE-SUITE 6 3401 INVESTMENT BLVD, HAYWARD, CA 94545
SN 0003-4851
J9 ANN MATH STAT
PY 1972
VL 43
IS 6
BP 2041
EP 2044
DI 10.1214/aoms/1177690881
PG 4
WC Mathematics; Statistics & Probability
SC Mathematics
GA O7023
UT WOS:A1972O702300033
ER

PT J
AU LANDERS, D
AF LANDERS, D
TI MINIMAL SUFFICIENT SIGMA-FIELDS AND MINIMAL SUFFICIENT STATISTICS - 2
   COUNTEREXAMPLES
SO ANNALS OF MATHEMATICAL STATISTICS
LA English
DT Article
C1 UNIV COLOGNE,MATH INST,COLOGNE,WEST GERMANY.
CR BAHADUR RR, 1954, ANN MATH STAT, V25, P423, DOI 10.1214/aoms/1177728715
   BAHADUR RR, 1955, ANN MATH STAT, V26, P139, DOI 10.1214/aoms/1177728604
   Bauer H., 1968, WAHRSCHEINLICHKEITST
   HALMOS PR, 1949, ANN MATH STAT, V20, P225, DOI 10.1214/aoms/1177730032
   PITCHER TS, 1957, ANN MATH STAT, V26, P267
NR 5
TC 3
Z9 3
U1 0
U2 1
PU INST MATHEMATICAL STATISTICS
PI HAYWARD
PA IMS BUSINESS OFFICE-SUITE 6 3401 INVESTMENT BLVD, HAYWARD, CA 94545
SN 0003-4851
J9 ANN MATH STAT
PY 1972
VL 43
IS 6
BP 2045
EP 2049
DI 10.1214/aoms/1177690882
PG 5
WC Mathematics; Statistics & Probability
SC Mathematics
GA O7023
UT WOS:A1972O702300034
ER

PT J
AU STONE, CJ
AF STONE, CJ
TI UPPER BOUND FOR RENEWAL FUNCTION
SO ANNALS OF MATHEMATICAL STATISTICS
LA English
DT Article
C1 UNIV CALIF,DEPT MATH,LOS ANGELES,CA 90024.
CR DUBMAN MR, 1970, THESIS U CALIFORNIA
NR 1
TC 6
Z9 6
U1 0
U2 0
PU INST MATHEMATICAL STATISTICS
PI HAYWARD
PA IMS BUSINESS OFFICE-SUITE 6 3401 INVESTMENT BLVD, HAYWARD, CA 94545
SN 0003-4851
J9 ANN MATH STAT
PY 1972
VL 43
IS 6
BP 2050
EP 2052
DI 10.1214/aoms/1177690883
PG 3
WC Mathematics; Statistics & Probability
SC Mathematics
GA O7023
UT WOS:A1972O702300035
ER

PT J
AU ROBINSON, J
AF ROBINSON, J
TI CONVERSE TO A COMBINATORIAL LIMIT THEOREM
SO ANNALS OF MATHEMATICAL STATISTICS
LA English
DT Article
C1 UNIV SYDNEY,DEPT MATH STATISTICS,SYDNEY,AUSTRALIA.
CR Bernstein S, 1939, CR ACAD SCI URSS, V24, P3
   BROWN BM, 1970, ANN MATH STAT, V41, P1853, DOI 10.1214/aoms/1177696686
   HAJEK J, 1961, ANN MATH STAT, V32, P506, DOI 10.1214/aoms/1177705057
   HOEFFDING W, 1951, ANN MATH STAT, V22, P558, DOI 10.1214/aoms/1177729545
   MOTOO M, 1957, ANN I STAT MATH, V8, P145
   NOETHER GE, 1949, ANN MATH STAT, V20, P455, DOI 10.1214/aoms/1177730000
   Wald A, 1944, ANN MATH STAT, V15, P358, DOI 10.1214/aoms/1177731207
NR 7
TC 4
Z9 4
U1 0
U2 0
PU INST MATHEMATICAL STATISTICS
PI HAYWARD
PA IMS BUSINESS OFFICE-SUITE 6 3401 INVESTMENT BLVD, HAYWARD, CA 94545
SN 0003-4851
J9 ANN MATH STAT
PY 1972
VL 43
IS 6
BP 2053
EP 2057
DI 10.1214/aoms/1177690884
PG 5
WC Mathematics; Statistics & Probability
SC Mathematics
GA O7023
UT WOS:A1972O702300036
ER

PT J
AU HANNAN, EJ
   HEYDE, CC
AF HANNAN, EJ
   HEYDE, CC
TI LIMIT THEOREMS FOR QUADRATIC FUNCTIONS OF DISCRETE-TIME SERIES
SO ANNALS OF MATHEMATICAL STATISTICS
LA English
DT Article
C1 AUSTRALIAN NATL UNIV,DEPT STATISTICS,CANBERRA 2600,AUSTRALIA.
CR ANDERSON TW, 1964, ANN MATH STAT, V35, P1296, DOI 10.1214/aoms/1177703285
   BOX GEP, 1970, TIME SERIES ANLYSIS
   BROWN BM, 1971, ANN MATH STAT, V42, P59, DOI 10.1214/aoms/1177693494
   Doob J. L., 1953, STOCHASTIC PROCESSES
   GIKHMAN II, 1969, INTRO THEORY RANDON
   HANNAN EJ, 1971, J APPL PROBAB, V8, P767, DOI 10.2307/3212240
   Hannan E. J., 1970, MULTIPLE TIME SERIES
   HEYDE CC, TO BE PUBLISHED
   KATZNELSON Y, 1968, HARMONIC ANALYSIS
NR 9
TC 96
Z9 96
U1 2
U2 2
PU INST MATHEMATICAL STATISTICS
PI HAYWARD
PA IMS BUSINESS OFFICE-SUITE 6 3401 INVESTMENT BLVD, HAYWARD, CA 94545
SN 0003-4851
J9 ANN MATH STAT
PY 1972
VL 43
IS 6
BP 2058
EP 2066
DI 10.1214/aoms/1177690885
PG 9
WC Mathematics; Statistics & Probability
SC Mathematics
GA O7023
UT WOS:A1972O702300037
ER

PT J
AU SHANTARAM, R
   HARKNESS, W
AF SHANTARAM, R
   HARKNESS, W
TI CERTAIN CLASS OF LIMIT DISTRIBUTIONS
SO ANNALS OF MATHEMATICAL STATISTICS
LA English
DT Article
C1 SUNY, STONY BROOK, NY 11790 USA.
   PENN STATE UNIV, DEPT STATISTICS, UNIV PK, PA 16802 USA.
CR Akhiezer N. I., 1965, CLASSICAL MOMENT PRO
   FELLER W, 1966, INTRO PROBATILITY TH, V2
   HARKNESS WL, 1969, PAC J MATH, V31, P403
   ROBSON DG, 1972, RELATIONSHIP BETWEEN
   STEUTEL FW, 1971, PRESERVATION INFINIT
   WIDDER DV, 1940, LAPLACE TRANSFORM
NR 6
TC 6
Z9 6
U1 0
U2 0
PU INST MATHEMATICAL STATISTICS
PI CLEVELAND
PA 3163 SOMERSET DR, CLEVELAND, OH 44122 USA
SN 0003-4851
J9 ANN MATH STAT
JI Ann. Math. Stat.
PY 1972
VL 43
IS 6
BP 2067
EP 2071
DI 10.1214/aoms/1177690886
PG 5
WC Mathematics; Statistics & Probability
SC Mathematics
GA O7023
UT WOS:A1972O702300038
ER

PT J
AU HEATH, DC
   SUDDERTH, WD
AF HEATH, DC
   SUDDERTH, WD
TI THEOREM OF DE-FINETTI, ODDSMAKING, AND GAME THEORY
SO ANNALS OF MATHEMATICAL STATISTICS
LA English
DT Article
C1 UNIV MINNESOTA,DEPT STATISTICS,MINNEAPOLIS,MN 55455.
CR DE FINETTI B., 1964, STUDIES SUBJECTIVE P, P93
   de Finetti B., 1937, ANN I H POINCARE, V7, P1
   DUNFORD N., 1958, LINEAR OPERATORS 1
   ESTES JA, 1968, ENCYCLOPEDIA BRITAM2, P714
   FREEDMAN DA, 1969, ANN MATH STAT, V40, P1177, DOI 10.1214/aoms/1177697494
   WILLIS KE, 1964, MANAGE SCI, V10, P574, DOI 10.1287/mnsc.10.3.574
   YANOVSKAYA EB, 1970, THEOR PROBAB APPL+, V15, P153, DOI 10.1137/1115021
NR 7
TC 24
Z9 24
U1 0
U2 1
PU INST MATHEMATICAL STATISTICS
PI HAYWARD
PA IMS BUSINESS OFFICE-SUITE 6 3401 INVESTMENT BLVD, HAYWARD, CA 94545
SN 0003-4851
J9 ANN MATH STAT
PY 1972
VL 43
IS 6
BP 2072
EP 2077
DI 10.1214/aoms/1177690887
PG 6
WC Mathematics; Statistics & Probability
SC Mathematics
GA O7023
UT WOS:A1972O702300039
ER

PT J
AU ROLPH, JE
   STRAUCH, RE
AF ROLPH, JE
   STRAUCH, RE
TI COUNTABLE POLICY SET FOR SEQUENTIAL DECISION PROBLEMS
SO ANNALS OF MATHEMATICAL STATISTICS
LA English
DT Article
C1 RAND CORP,SANTA MONICA,CA 90406.
CR Blackwell D, 1965, ANN MATH STAT, V36, P226, DOI DOI 10.1214/AOMS/1177700285
   BLACKWELL D, 1967, 5 P BERK S MATH STAT, V1
   Dubins Lester E., 1965, HOW GAMBLE YOU MUST
   FOX BL, 1971, J MATH ANAL APPL, V34, P665, DOI 10.1016/0022-247X(71)90106-5
   FOX BW, TO BE PUBLISHED
NR 5
TC 1
Z9 1
U1 0
U2 0
PU INST MATHEMATICAL STATISTICS
PI HAYWARD
PA IMS BUSINESS OFFICE-SUITE 6 3401 INVESTMENT BLVD, HAYWARD, CA 94545
SN 0003-4851
J9 ANN MATH STAT
PY 1972
VL 43
IS 6
BP 2078
EP 2082
DI 10.1214/aoms/1177690888
PG 5
WC Mathematics; Statistics & Probability
SC Mathematics
GA O7023
UT WOS:A1972O702300040
ER

PT J
AU EPHREMID.A
   THOMAS, JB
AF EPHREMID.A
   THOMAS, JB
TI MULTIPLICITY OF A CLASS OF MULTIVARIATE RANDOM PROCESSES
SO ANNALS OF MATHEMATICAL STATISTICS
LA English
DT Article
C1 UNIV MARYLAND,COLLEGE PK,MD 20740.
   PRINCETON UNIV,DEPT ELECT ENGN,PRINCETON,NJ 08540.
CR Akhiezer N. I., 1963, THEORY LINEAR OPERAT
   CAMBANIS S, 1969, 29 PRINC U HILB SPAC
   Cramer H., 1961, Arkiv for Matematik, V4, DOI 10.1007/BF02592012
   CRAMER H, 1967, 5 P BERK S MATH STAT, V2, P215
   CRAMER H, 1960, 4 P BERK S STAT APPL, V2, P57
   EPHREMIDES A, 1970, 8 P ANN ALL C, P589
   HIDA T, 1960, MEM COLLEGE SCI MA A, V33
   KALLIANPUR G, 1965, THEOR PROBAB APPL+, V10, P553, DOI 10.1137/1110073
   MANDREKAR V, 1968, NAGOYA MATH J, V33, P7
   Rao M. M., 1967, ANN MAT PURA APPLIC, V76, P107, DOI 10.1007/BF02412231
   Rosanov Y. A., 1967, STATIONARY RANDOM PR
   ROYDEN HL, 1963, REAL ANALYSIS
NR 12
TC 0
Z9 0
U1 0
U2 0
PU INST MATHEMATICAL STATISTICS
PI HAYWARD
PA IMS BUSINESS OFFICE-SUITE 6 3401 INVESTMENT BLVD, HAYWARD, CA 94545
SN 0003-4851
J9 ANN MATH STAT
PY 1972
VL 43
IS 6
BP 2083
EP 2089
DI 10.1214/aoms/1177690889
PG 7
WC Mathematics; Statistics & Probability
SC Mathematics
GA O7023
UT WOS:A1972O702300041
ER

PT J
AU KENNEDY, DP
AF KENNEDY, DP
TI ESTIMATES OF RATES OF CONVERGENCE IN LIMIT THEOREMS FOR FIRST PASSAGE
   TIMES OF RANDOM-WALKS
SO ANNALS OF MATHEMATICAL STATISTICS
LA English
DT Article
C1 UNIV SHEFFIELD,DEPT PROBABIL & STATISTICS,SHEFFIELD S3 7RH,YORKSHIRE,ENGLAND.
CR Breiman L., 1968, PROBABILITY
   DHARMADHIKARI SW, 1968, ANN MATH STAT, V39, P1719
   FELLER W., 1957, INTRO PROBABILITY TH, VI
   Kennedy D. P., 1972, Advances in Applied Probability, V4, P357, DOI 10.2307/1426004
   NAGAEV SV, 1970, THEOR PROBAB APPL+, V15, P309, DOI 10.1137/1115036
   ROSENKRANTZ WA, 1967, T AM MATH SOC, V129, P542, DOI 10.2307/1994607
   SAWYER S, 1968, T AM MATH SOC, V132, P363, DOI 10.2307/1994846
   Skorokhod A. V., 1965, STUDIES THEORY RANDO
   VONBAHR B, 1965, ANN MATH STAT, V39, P299
NR 9
TC 5
Z9 5
U1 0
U2 0
PU INST MATHEMATICAL STATISTICS
PI HAYWARD
PA IMS BUSINESS OFFICE-SUITE 6 3401 INVESTMENT BLVD, HAYWARD, CA 94545
SN 0003-4851
J9 ANN MATH STAT
PY 1972
VL 43
IS 6
BP 2090
EP 2094
DI 10.1214/aoms/1177690890
PG 5
WC Mathematics; Statistics & Probability
SC Mathematics
GA O7023
UT WOS:A1972O702300042
ER

PT J
AU RAIFAIZE.CH
AF RAIFAIZE.CH
TI PAIRS OF ONE DIMENSIONAL RANDOM-WALK PATHS
SO ANNALS OF MATHEMATICAL STATISTICS
LA English
DT Article
C1 MIT,CAMBRIDGE,MA 02139.
CR Feller W., 1968, INTRO PROBABILITY TH, VI
NR 1
TC 0
Z9 0
U1 0
U2 0
PU INST MATHEMATICAL STATISTICS
PI HAYWARD
PA IMS BUSINESS OFFICE-SUITE 6 3401 INVESTMENT BLVD, HAYWARD, CA 94545
SN 0003-4851
J9 ANN MATH STAT
PY 1972
VL 43
IS 6
BP 2095
EP 2098
DI 10.1214/aoms/1177690891
PG 4
WC Mathematics; Statistics & Probability
SC Mathematics
GA O7023
UT WOS:A1972O702300043
ER

PT J
AU WEINER, HJ
AF WEINER, HJ
TI CRITICAL AGE-DEPENDENT BRANCHING PROCESS WITH IMMIGRATION
SO ANNALS OF MATHEMATICAL STATISTICS
LA English
DT Article
C1 UNIV CALIF,DEPT MATH,DAVIS,CA 95616.
CR DURHAM SD, 1971, ANN MATH STAT, V42, P1121, DOI 10.1214/aoms/1177693344
   FOSTER JH, 1969, THESIS U WISCONSIN
   Harris T., 1963, THEORY BRANCHING PRO
   JAGERS P, 1968, THEOR PROBAB APPL+, V13, P225, DOI 10.1137/1113027
   SENETA E, 1970, J ROY STAT SOC B, V32, P149
   Sevast'yanov B. A., 1957, THEOR PROBAB APPL, V2, P321, DOI 10.1137/1102022
   WEINER HJ, 1965, ANN MATH STAT, V36, P1565, DOI 10.1214/aoms/1177699917
   Widder D.V., 1946, LAPLACE TRANSFORM
NR 8
TC 2
Z9 2
U1 0
U2 0
PU INST MATHEMATICAL STATISTICS
PI HAYWARD
PA IMS BUSINESS OFFICE-SUITE 6 3401 INVESTMENT BLVD, HAYWARD, CA 94545
SN 0003-4851
J9 ANN MATH STAT
PY 1972
VL 43
IS 6
BP 2099
EP 2103
DI 10.1214/aoms/1177690892
PG 5
WC Mathematics; Statistics & Probability
SC Mathematics
GA O7023
UT WOS:A1972O702300044
ER

PT J
AU STRATTON, HH
AF STRATTON, HH
TI FELLERS PARAMETRIC EQUATIONS FOR LAWS OF ITERATED LOGARITHM
SO ANNALS OF MATHEMATICAL STATISTICS
LA English
DT Article
C1 INST DEF ANAL, ALBANY, NY 12200 USA.
   SUNY, ALBANY, NY 12203 USA.
CR Chung KL, 1968, COURSE PROBABILITY T
   EGOROV VA, 1969, THEOR PROBAB APPL, V14, P635
   FELLER W, 1969, Z WAHRSCHEINLICHKEIT, V14, P21, DOI 10.1007/BF00534114
   FELLER W, 1969, Z WAHRSCHEINLICHKEIT, V14, P1, DOI 10.1007/BF00534113
   THOMPKINS RJ, 1970, THESIS PURDUE U
NR 5
TC 1
Z9 1
U1 0
U2 0
PU INST MATHEMATICAL STATISTICS
PI CLEVELAND
PA 3163 SOMERSET DR, CLEVELAND, OH 44122 USA
SN 0003-4851
J9 ANN MATH STAT
JI Ann. Math. Stat.
PY 1972
VL 43
IS 6
BP 2104
EP 2109
DI 10.1214/aoms/1177690893
PG 6
WC Mathematics; Statistics & Probability
SC Mathematics
GA O7023
UT WOS:A1972O702300045
ER

PT J
AU REVESZ, P
   VINCZE, I
AF REVESZ, P
   VINCZE, I
TI RENYI,R 1921-1970
SO ANNALS OF MATHEMATICAL STATISTICS
LA English
DT Item About an Individual
C1 HUNGARIAN ACAD SCI,MATH INST,BUDAPEST,HUNGARY.
CR CSORGO M, 1970, ACTA MATH ACAD SCI H, V21, P105, DOI 10.1007/BF02022494
   FLOREK K, 1953, STUDIA MATH, V13, P123
   MARCZEWSKI E, 1953, STUDIA MATH, V13, P130
   MOGYORODI I, 1965, ANN U SCI BUDAPEST, V8, P33
   MOGYORODI I, 1962, PUBL MATH I HUNGAR A, V7, P409
   PREKOPA A, 1957, ACTA SCI MATH SZEGED, V18, P23
   PREKOPA A, 1959, ANN U SCI BUDAPEST M, V2, P139
   Prekopa A., 1957, STUD MATH, V16, P142
   Ryll-Nardzewski C., 1954, STUD MATH, V14, P314
NR 9
TC 1
Z9 1
U1 0
U2 0
PU INST MATHEMATICAL STATISTICS
PI HAYWARD
PA IMS BUSINESS OFFICE-SUITE 6 3401 INVESTMENT BLVD, HAYWARD, CA 94545
SN 0003-4851
J9 ANN MATH STAT
PY 1972
VL 43
IS 6
BP R1
EP R16
PG 16
WC Mathematics; Statistics & Probability
SC Mathematics
GA O7023
UT WOS:A1972O702300001
ER

PT J
AU STECK, GP
AF STECK, GP
TI RECTANGLE PROBABILITIES FOR UNIFORM ORDER STATISTICS AND PROBABILITY
   THAT EMPIRICAL DISTRIBUTION FUNCTION LIES BETWEEN 2 DISTRIBUTION
   FUNCTIONS
SO ANNALS OF MATHEMATICAL STATISTICS
LA English
DT Article
CR ADAMS EP, 1957, SMITHSONIAN MATHEMAT
   AGGARWAL OP, 1955, ANN MATH STAT, V26, P450, DOI 10.1214/aoms/1177728490
   ANDERSON TW, 1952, ANN MATH STAT, V23, P193, DOI 10.1214/aoms/1177729437
   BIRNBAUM ZW, 1951, ANN MATH STAT, V22, P592, DOI 10.1214/aoms/1177729550
   BIRNBAUM ZW, 1969, J AM STAT ASSOC, V64, P870, DOI 10.2307/2283468
   BIRNBAUM ZW, 1969, ZASTOS MAT, V10, P179
   DEMPSTER AP, 1959, ANN MATH STAT, V30, P593, DOI 10.1214/aoms/1177706275
   DURBIN J, 1968, ANN MATH STAT, V39, P398, DOI 10.1214/aoms/1177698404
   DVORETZKY A, 1956, ANN MATH STAT, V27, P642, DOI 10.1214/aoms/1177728174
   DWASS M, 1959, ANN MATH STAT, V30, P1024, DOI 10.1214/aoms/1177706085
   EPANECHNIKOV VA, 1968, THEOR PROBAB APPL+, V13, P686, DOI 10.1137/1113085
   KEMPERMAN JHB, 1957, NEDERL AKAD WETENS A, V60, P535
   Kolmogorov A., 1933, GIORN I ITAL DEGLI A, V4, P83
   LIENTZ BP, 1968, NONR47738 CONTR
   MALMQUIST R, 1954, ANN MATH STAT, V25, P523
   MOHANTY SG, 1970, PERSONAL COMMUNICATI
   NOE M, 1968, ANN MATH STAT, V39, P233, DOI 10.1214/aoms/1177698523
   PYKE R, 1959, ANN MATH STAT, V30, P568, DOI 10.1214/aoms/1177706269
   Riordan J., 1968, COMBINATORIAL IDENTI
   STECK GP, 1969, ANN MATH STAT, V40, P1449, DOI 10.1214/aoms/1177697516
   STECK GP, IN PRESS
   SUZUKI G, 1967, ANN I STAT MATH, V19, P373, DOI 10.1007/BF02911691
   SUZUKI G, 1968, J AM STAT ASSOC, V63, P919, DOI 10.2307/2283884
   Wald A, 1939, ANN MATH STAT, V10, P105, DOI 10.1214/aoms/1177732209
   WALKUP DW, 1970, 644 MATH RES LAB MAT
   WHITTLE P, 1961, ANN MATH STAT, V32, P499, DOI 10.1214/aoms/1177705056
NR 26
TC 58
Z9 59
U1 1
U2 2
PU INST MATHEMATICAL STATISTICS
PI HAYWARD
PA IMS BUSINESS OFFICE-SUITE 7, 3401 INVESTMENT BLVD, HAYWARD, CA 94545
SN 0003-4851
J9 ANN MATH STAT
PY 1971
VL 42
IS 1
BP 1
EP &
DI 10.1214/aoms/1177693490
PG 0
WC Mathematics; Statistics & Probability
SC Mathematics
GA J2589
UT WOS:A1971J258900001
ER

PT J
AU DOKSUM, K
   THOMPSON, R
AF DOKSUM, K
   THOMPSON, R
TI POWER BOUNDS AND ASYMPTOTIC MINIMAX RESULTS FOR ONE-SAMPLE RANK TESTS
SO ANNALS OF MATHEMATICAL STATISTICS
LA English
DT Article
CR BELL CB, 1966, ANN MATH STAT, V37, P133, DOI 10.1214/aoms/1177699604
   BELL CB, 1966, ANN MATH STAT, V38, P429
   Birnbaum Z. W., 1953, ANN MATH STAT, V24, P284
   CAPON J, 1965, J AM STAT ASSOC, V60, P843
   CHAPMAN DG, 1958, ANN MATH STAT, V29, P655, DOI 10.1214/aoms/1177706529
   DOKSUM K, 1966, ANN MATH STAT, V37, P619, DOI 10.1214/aoms/1177699455
   GOVINDARAJULU Z, 1960, 11 U MINN DEP STAT R
   GROSS S, 1966, THESIS U CALIFORNIA
   GUPTA MK, 1967, ANN MATH STAT, V38, P849, DOI 10.1214/aoms/1177698879
   Hammersley J. M., 1964, MONTE CARLO METHODS
   HODGES JL, 1962, ANN MATH STAT, V33, P482, DOI 10.1214/aoms/1177704575
   HOEFFDING W, 1951, 2 P BERK S MATH STAT, P83
   RUIST E, 1954, ARK MATEMATIK, V3, P133
   SAVAGE IR, 1959, ANN MATH STAT, V30, P1018, DOI 10.1214/aoms/1177706084
   THOMPSON, 1967, J AM STATIST ASSOC, V62, P966
NR 15
TC 3
Z9 3
U1 0
U2 0
PU INST MATHEMATICAL STATISTICS
PI HAYWARD
PA IMS BUSINESS OFFICE-SUITE 7, 3401 INVESTMENT BLVD, HAYWARD, CA 94545
SN 0003-4851
J9 ANN MATH STAT
PY 1971
VL 42
IS 1
BP 12
EP &
DI 10.1214/aoms/1177693491
PG 0
WC Mathematics; Statistics & Probability
SC Mathematics
GA J2589
UT WOS:A1971J258900002
ER

PT J
AU STEFANSKY, W
AF STEFANSKY, W
TI REJECTING OUTLIERS BY MAXIMUM NORMED RESIDUAL
SO ANNALS OF MATHEMATICAL STATISTICS
LA English
DT Article
CR Anscombe F.J., 1960, TECHNOMETRICS, V2, P123, DOI DOI 10.1080/00401706.1960.10489888
   BORENIUS G, 1958, SKAND AKTUARIETIDSK, V41, P131
   Daniel C., 1960, TECHNOMETRICS, V2, P149, DOI 10.2307/1266541
   FERGUSON TS, 1961, 4 P BERK S MATH STAT, V1, P253
   GRUBBS FE, 1969, TECHNOMETRICS, V11, P1, DOI 10.2307/1266761
   LIEBLEIN J, 1952, J RES NAT BUR STAND, V48, P255, DOI 10.6028/jres.048.033
   Pearson ES, 1936, BIOMETRIKA, V28, P308, DOI 10.2307/2333954
   PLACKETT RL, 1946, BIOMETRIKA, V33, P305, DOI 10.2307/2332195
NR 8
TC 26
Z9 26
U1 0
U2 1
PU INST MATHEMATICAL STATISTICS
PI CLEVELAND
PA 3163 SOMERSET DR, CLEVELAND, OH 44122 USA
SN 0003-4851
J9 ANN MATH STAT
JI Ann. Math. Stat.
PY 1971
VL 42
IS 1
BP 35
EP +
DI 10.1214/aoms/1177693492
PG 1
WC Mathematics; Statistics & Probability
SC Mathematics
GA J2589
UT WOS:A1971J258900003
ER

PT J
AU DRAPER, NR
   BEGGS, WJ
AF DRAPER, NR
   BEGGS, WJ
TI ERRORS IN FACTOR LEVELS AND EXPERIMENTAL DESIGN
SO ANNALS OF MATHEMATICAL STATISTICS
LA English
DT Article
CR BEGGS WJ, 1969, THESIS U WISCONSIN
   BOX GEP, 1952, BIOMETRIKA, V39, P49
   BOX GEP, 1963, TECHNOMETRICS, V5, P247, DOI 10.2307/1266066
   JENNINGS W, 1964, FIRST COURSE NUMERIC
NR 4
TC 0
Z9 0
U1 0
U2 0
PU INST MATHEMATICAL STATISTICS
PI HAYWARD
PA IMS BUSINESS OFFICE-SUITE 7, 3401 INVESTMENT BLVD, HAYWARD, CA 94545
SN 0003-4851
J9 ANN MATH STAT
PY 1971
VL 42
IS 1
BP 46
EP &
DI 10.1214/aoms/1177693493
PG 0
WC Mathematics; Statistics & Probability
SC Mathematics
GA J2589
UT WOS:A1971J258900004
ER

PT J
AU BROWN, BM
AF BROWN, BM
TI MARTINGALE CENTRAL LIMIT THEOREMS
SO ANNALS OF MATHEMATICAL STATISTICS
LA English
DT Article
CR Billingsley P., 1968, CONVERGENCE PROBABIL
   Billingsley P., 1956, T AM MATH SOC, V83, P250, DOI 10.2307/1992915
   Billingsley P., 1961, P AM MATH SOC, V12, P788, DOI DOI 10.2307/2034876
   CSORGO M, 1968, T AM MATH SOC, V131, P259, DOI 10.2307/1994694
   Donsker M., 1951, MEM AM MATH SOC, V6
   Doob J. L., 1953, STOCHASTIC PROCESSES
   DOOB JL, 1960, 4 P BERK S MATH STAT, V2, P95
   DVORETSKY A, 1967, FAL SEM LECT NOT PUR
   DVORETZK.A, 1969, ANN MATH STAT, V40, P1871
   ERDOS P, 1946, B AM MATH SOC, V53, P1011
   lbragimov I.A., 1963, THEOR PROBAB APPL, V8, P83, DOI 10.1137/1108007
   Levy P, 1937, THEORIE ADDITION VAR
   Levy P., 1935, J MATH PURE APPL, V9, P347
   LOYNES RM, 1969, Z WAHRSCHEINLICHKEIT, V13, P1, DOI 10.1007/BF00535793
   LOYNES RM, 1969, 631 U N CAR I STAT M
   Parthasarathy K. R., 1967, PROBABILITY MEASURES
   ROSEN B, 1967, Z WAHRSCHEINLICHKEIT, V7, P48, DOI 10.1007/BF00532097
NR 17
TC 302
Z9 306
U1 1
U2 5
PU INST MATHEMATICAL STATISTICS
PI HAYWARD
PA IMS BUSINESS OFFICE-SUITE 7, 3401 INVESTMENT BLVD, HAYWARD, CA 94545
SN 0003-4851
J9 ANN MATH STAT
PY 1971
VL 42
IS 1
BP 59
EP &
DI 10.1214/aoms/1177693494
PG 0
WC Mathematics; Statistics & Probability
SC Mathematics
GA J2589
UT WOS:A1971J258900005
ER

PT J
AU ANDEL, J
AF ANDEL, J
TI LOCAL PROPERTIES OF AUTOREGRESSIVE SERIES
SO ANNALS OF MATHEMATICAL STATISTICS
LA English
DT Article
CR ANDEL J, 1967, ANN MATH STAT, V38, P1705, DOI 10.1214/aoms/1177698605
   Hajek J, 1967, THEORY RANK TESTS
   HAJEK J, 1962, CZECH MATH J, V12, P404
NR 3
TC 0
Z9 0
U1 0
U2 0
PU INST MATHEMATICAL STATISTICS
PI HAYWARD
PA IMS BUSINESS OFFICE-SUITE 7, 3401 INVESTMENT BLVD, HAYWARD, CA 94545
SN 0003-4851
J9 ANN MATH STAT
PY 1971
VL 42
IS 1
BP 67
EP &
DI 10.1214/aoms/1177693495
PG 0
WC Mathematics; Statistics & Probability
SC Mathematics
GA J2589
UT WOS:A1971J258900006
ER

PT J
AU ROBERTSON, JB
AF ROBERTSON, JB
TI ALGORITHM FOR COMPUTING NON-LINEAR PREDICTOR
SO ANNALS OF MATHEMATICAL STATISTICS
LA English
DT Article
CR Amemiya I., 1965, Z WAHRSCHEINLICHKEIT, V4, P113, DOI 10.1007/BF00536745
   BRONS HK, 1969, ANN MATH STAT, V40, P339, DOI 10.1214/aoms/1177697698
   Doob J.L., 1953, STOCHASTIC PROCESSES
   Farrell R. H., 1962, ILLINOIS J MATH, V6, P447
   HALMOS PR, 1956, ERGODIC THEORY
   MASANI P, 1959, PROBABILITY STAT, P190
   MOY STC, 1960, ANN MATH STAT, V31, P995, DOI 10.1214/aoms/1177705672
   ROBERTSON JB, 1965, ANN MATH STAT, V36, P1554, DOI 10.1214/aoms/1177699914
NR 8
TC 2
Z9 2
U1 0
U2 0
PU INST MATHEMATICAL STATISTICS
PI CLEVELAND
PA 3163 SOMERSET DR, CLEVELAND, OH 44122 USA
SN 0003-4851
J9 ANN MATH STAT
JI Ann. Math. Stat.
PY 1971
VL 42
IS 1
BP 75
EP +
DI 10.1214/aoms/1177693496
PG 1
WC Mathematics; Statistics & Probability
SC Mathematics
GA J2589
UT WOS:A1971J258900007
ER

PT J
AU MACNEILL, IB
AF MACNEILL, IB
TI LIMIT PROCESSES FOR CO-SPECTRAL AND QUADRATURE SPECTRAL DISTRIBUTION
   FUNCTIONS
SO ANNALS OF MATHEMATICAL STATISTICS
LA English
DT Article
CR ANDERSON TW, 1952, ANN MATH STAT, V23, P193, DOI 10.1214/aoms/1177729437
   Billingsley P., 1968, CONVERGENCE PROBABIL
   BRILLING.DR, 1969, BIOMETRIKA, V56, P375, DOI 10.2307/2334430
   DUNFORD N., 1958, LINEAR OPERATORS 1
   FELLER W, 1951, ANN MATH STAT, V22, P427, DOI 10.1214/aoms/1177729589
   GRENANDER U, 1957, STATISTICAL ANALYSIS
   HOEFFDING W, 1948, DUKE MATH J, V15, P773, DOI 10.1215/S0012-7094-48-01568-3
   Ibragimov I. A., 1963, THEOR PROBAB APPL, V8, P366, DOI 10.1137/1108044
   MACNEILL IB, 1969, THESIS STANFORD U
   MALEVICH TL, 1964, THEORY PROBAB APPL, V9, P350, DOI 10.1137/1109052
   Prokhorov Yu V., 1956, THEOR PROBAB APPL, V1, P157, DOI DOI 10.1137/1101016
   WATSON GS, 1961, BIOMETRIKA, V48, P109, DOI 10.2307/2333135
NR 12
TC 5
Z9 5
U1 0
U2 0
PU INST MATHEMATICAL STATISTICS
PI HAYWARD
PA IMS BUSINESS OFFICE-SUITE 7, 3401 INVESTMENT BLVD, HAYWARD, CA 94545
SN 0003-4851
J9 ANN MATH STAT
PY 1971
VL 42
IS 1
BP 81
EP &
DI 10.1214/aoms/1177693497
PG 0
WC Mathematics; Statistics & Probability
SC Mathematics
GA J2589
UT WOS:A1971J258900008
ER

PT J
AU SHIH, CT
AF SHIH, CT
TI CONSTRUCTION OF MARKOV PROCESSES FROM HITTING DISTRIBUTIONS II
SO ANNALS OF MATHEMATICAL STATISTICS
LA English
DT Article
CR Blumenthal R.M., 1968, MARKOV PROCESSES POT
   HANSEN W, 1968, INVENT MATH, V5, P335, DOI 10.1007/BF01389780
   SHIH CT, 1971, Z WAHRSCHEINLICHKEIT, V18, P47, DOI 10.1007/BF00538487
NR 3
TC 1
Z9 1
U1 0
U2 0
PU INST MATHEMATICAL STATISTICS
PI HAYWARD
PA IMS BUSINESS OFFICE-SUITE 7, 3401 INVESTMENT BLVD, HAYWARD, CA 94545
SN 0003-4851
J9 ANN MATH STAT
PY 1971
VL 42
IS 1
BP 97
EP &
DI 10.1214/aoms/1177693498
PG 0
WC Mathematics; Statistics & Probability
SC Mathematics
GA J2589
UT WOS:A1971J258900009
ER

PT J
AU RODRIGUEZ, DM
AF RODRIGUEZ, DM
TI PROCESSES OBTAINABLE FROM BROWNIAN MOTION BY MEANS OF A RANDOM TIME
   CHANGE
SO ANNALS OF MATHEMATICAL STATISTICS
LA English
DT Article
CR Breiman L., 1968, PROBABILITY
   DAMBIS KE, 1965, THEOR PROBAB APPL+, V10, P401, DOI 10.1137/1110048
   DUBINS LE, 1968, ANN MATH STAT, V39, P2094, DOI 10.1214/aoms/1177698036
   DUBINS LE, 1965, P NATL ACAD SCI USA, V53, P913, DOI 10.1073/pnas.53.5.913
   HUFF BW, 1969, ANN MATH STAT, V40, P1603, DOI 10.1214/aoms/1177697375
   Hunt G. A., 1956, T AM MATH SOC, V81, P294, DOI 10.1090/S0002-9947-1956-0079377-3
   ROOT DH, 1969, ANN MATH STAT, V40, P715, DOI 10.1214/aoms/1177697749
   Tucker H. G, 1967, GRADUATE COURSE PROB
NR 8
TC 1
Z9 1
U1 0
U2 1
PU INST MATHEMATICAL STATISTICS
PI CLEVELAND
PA 3163 SOMERSET DR, CLEVELAND, OH 44122 USA
SN 0003-4851
J9 ANN MATH STAT
JI Ann. Math. Stat.
PY 1971
VL 42
IS 1
BP 115
EP +
DI 10.1214/aoms/1177693499
PG 1
WC Mathematics; Statistics & Probability
SC Mathematics
GA J2589
UT WOS:A1971J258900010
ER

PT J
AU KAILATH, T
   ZAKAI, M
AF KAILATH, T
   ZAKAI, M
TI ABSOLUTE CONTINUITY AND RADON-NIKODYM DERIVATIVES FOR CERTAIN MEASURES
   RELATIVE TO WIENER MEASURE
SO ANNALS OF MATHEMATICAL STATISTICS
LA English
DT Article
CR Doob J. L., 1953, STOCHASTIC PROCESSES
   Dynkin E B, 1965, MARKOV PROCESSES
   FROST PA, 1968, THESIS STANFORD U
   Girsanov I.V., 1960, THEOR PROBAB APPL, V5, P285, DOI 10.1137/1105027
   Ito K., 1964, J MATH KYOTO U, V4, P1
   KADOTA TT, 1971, Z WAHRSCHEINLICHKEIT
   KAILAITH T, 1969, IEEE T INFORM THEORY, VIT15, P350
   KAILATH T, 1970, IEEE T INFORM THEORY, VIT16, P393
   McKean Jr H. P., 1969, STOCHASTIC INTEGRALS
   Skorohod A. V., 1965, STUDIES THEORY RANDO
NR 10
TC 31
Z9 31
U1 0
U2 0
PU INST MATHEMATICAL STATISTICS
PI HAYWARD
PA IMS BUSINESS OFFICE-SUITE 7, 3401 INVESTMENT BLVD, HAYWARD, CA 94545
SN 0003-4851
J9 ANN MATH STAT
PY 1971
VL 42
IS 1
BP 130
EP &
DI 10.1214/aoms/1177693500
PG 0
WC Mathematics; Statistics & Probability
SC Mathematics
GA J2589
UT WOS:A1971J258900011
ER

PT J
AU FRASER, DAS
   PRENTICE, RL
AF FRASER, DAS
   PRENTICE, RL
TI RANDOMIZED MODELS AND DILUTION AND BIOASSAY PROBLEMS
SO ANNALS OF MATHEMATICAL STATISTICS
LA English
DT Article
CR Fisher RA, 1935, J R STAT SOC, V98, P39, DOI 10.2307/2342435
   FISHER RA, 1950, CONTRIBUTIONS MATHEM
   Fraser D.A.S., 1968, STRUCTURE INFERENCE
NR 3
TC 2
Z9 2
U1 0
U2 0
PU INST MATHEMATICAL STATISTICS
PI HAYWARD
PA IMS BUSINESS OFFICE-SUITE 7, 3401 INVESTMENT BLVD, HAYWARD, CA 94545
SN 0003-4851
J9 ANN MATH STAT
PY 1971
VL 42
IS 1
BP 141
EP &
DI 10.1214/aoms/1177693501
PG 0
WC Mathematics; Statistics & Probability
SC Mathematics
GA J2589
UT WOS:A1971J258900012
ER

PT J
AU MOORE, DS
AF MOORE, DS
TI CHI-SQUARE STATISTIC WITH RANDOM CELL BOUNDARIES
SO ANNALS OF MATHEMATICAL STATISTICS
LA English
DT Article
CR Billingsley P., 1968, CONVERGENCE PROBABIL
   CHERNOFF H, 1954, ANN MATH STAT, V25, P579, DOI 10.1214/aoms/1177728726
   DAVIS P. J., 1967, NUMERICAL INTEGRATIO
   DUDLEY RM, 1966, ILLINOIS J MATH, V10, P109
   GURLAND J, 1948, ANN MATH STAT, V19, P228, DOI 10.1214/aoms/1177730247
   MOORE DS, 1969, ANN MATH STAT, V40, P1809, DOI 10.1214/aoms/1177697394
   NEUHAUS G, 1969, WEAK CONVERGENCE STO
   PYKE R, 1968, INT S PROBABILITY TH
   Rao C. R, 1963, SANKHYA A, V25, P189
   ROY AR, 1956, 1 STANF U TECHN REP
   WATSON GS, 1959, BIOMETRICS, V15, P440, DOI 10.2307/2527749
   WATSON GS, 1958, J ROY STAT SOC B, V20, P44
   WATSON GS, 1957, BIOMETRIKA, V44, P336, DOI 10.2307/2332866
   1953, TABLES NORMAL PROBAB
NR 14
TC 38
Z9 38
U1 0
U2 1
PU INST MATHEMATICAL STATISTICS
PI HAYWARD
PA IMS BUSINESS OFFICE-SUITE 7, 3401 INVESTMENT BLVD, HAYWARD, CA 94545
SN 0003-4851
J9 ANN MATH STAT
PY 1971
VL 42
IS 1
BP 147
EP &
DI 10.1214/aoms/1177693502
PG 0
WC Mathematics; Statistics & Probability
SC Mathematics
GA J2589
UT WOS:A1971J258900013
ER

PT J
AU BERAN, RJ
AF BERAN, RJ
TI DISTRIBUTION-FREE STATISTICAL INFERENCE WITH UPPER AND LOWER
   PROBABILITIES
SO ANNALS OF MATHEMATICAL STATISTICS
LA English
DT Article
CR DEMPSTER AP, 1967, ANN MATH STAT, V38, P325, DOI 10.1214/aoms/1177698950
   DEMPSTER AP, 1966, ANN MATH STAT, V37, P355, DOI 10.1214/aoms/1177699517
   Fraser D.A.S., 1968, STRUCTURE INFERENCE
   HODGES JL, 1963, ANN MATH STAT, V34, P598, DOI 10.1214/aoms/1177704172
   SEN PK, 1968, J AM STAT ASSOC, V63, P1379
   SUKHATME BV, 1957, ANN MATH STAT, V28, P188, DOI 10.1214/aoms/1177707046
   Theil H., 1950, NEDERLANDSCHE AKAD W, V53, P521
   Theil H., 1950, NEDERLANDSCHE AKAD W, V53, P1397
   THEIL H, 1950, NEDERL AKAD WETENS A, V53, P368
NR 9
TC 4
Z9 4
U1 0
U2 0
PU INST MATHEMATICAL STATISTICS
PI HAYWARD
PA IMS BUSINESS OFFICE-SUITE 7, 3401 INVESTMENT BLVD, HAYWARD, CA 94545
SN 0003-4851
J9 ANN MATH STAT
PY 1971
VL 42
IS 1
BP 157
EP &
DI 10.1214/aoms/1177693503
PG 0
WC Mathematics; Statistics & Probability
SC Mathematics
GA J2589
UT WOS:A1971J258900014
ER

PT J
AU SIDAK, Z
AF SIDAK, Z
TI PROBABILITIES OF RECTANGLES IN MULTIVARIATE STUDENT DISTRIBUTIONS -
   THEIR DEPENDENCE ON CORRELATIONS
SO ANNALS OF MATHEMATICAL STATISTICS
LA English
DT Article
CR Cramer H., 1946, MATHEMATICAL METHODS
   DUNN OJ, 1958, ANN MATH STAT, V29, P1095, DOI 10.1214/aoms/1177706443
   DUNNETT CW, 1955, BIOMETRIKA, V42, P258, DOI 10.2307/2333441
   HALPERIN M, 1967, J AM STAT ASSOC, V62, P603
   KHATRI CG, 1967, ANN MATH STAT, V38, P1853, DOI 10.1214/aoms/1177698618
   SCOTT A, 1968, ANN MATH STAT, V39, P2161, DOI 10.1214/aoms/1177698053
   SCOTT A, 1967, ANN MATH STAT, V38, P278, DOI 10.1214/aoms/1177699083
   SIDAK Z, 1968, ANN MATH STAT, V39, P1425
   SIDAK Z, 1965, B INT STATIST INST, V41, P380
   SIDAK Z, 1967, J AM STAT ASSOC, V62, P626, DOI 10.2307/2283989
   SIDAK Z, 1962, APL MAT, V7, P292
   SIDAK Z, 1967, 7 MICH STAT U STAT L
NR 12
TC 44
Z9 44
U1 0
U2 2
PU INST MATHEMATICAL STATISTICS
PI HAYWARD
PA IMS BUSINESS OFFICE-SUITE 7, 3401 INVESTMENT BLVD, HAYWARD, CA 94545
SN 0003-4851
J9 ANN MATH STAT
PY 1971
VL 42
IS 1
BP 169
EP &
DI 10.1214/aoms/1177693504
PG 0
WC Mathematics; Statistics & Probability
SC Mathematics
GA J2589
UT WOS:A1971J258900015
ER

PT J
AU SERFOZO, RF
AF SERFOZO, RF
TI RANDOM TIME TRANSFORMATIONS OF SEMI-MARKOV PROCESSES
SO ANNALS OF MATHEMATICAL STATISTICS
LA English
DT Article
CR Blumenthal R.M., 1968, MARKOV PROCESSES POT
   Breiman L., 1968, PROBABILITY
   Dynkin E. B., 1965, MARKOV PROCESSES 1
   FELLER W, 1964, P NATL ACAD SCI USA, V51, P653, DOI 10.1073/pnas.51.4.653
   FELLER W, 1966, INTRODUCTION PROBABI, V2
   Levy P., 1954, P INT C MATH AMSTERD, V3, P416
   Meyer P. A., 1966, PROBABILITY POTENTIA
   Parthasarathy K. R., 1967, PROBABILITY MEASURES
   PYKE R, 1961, ANN MATH STAT, V32, P1231, DOI 10.1214/aoms/1177704863
   PYKE R, 1961, ANN MATH STAT, V32, P1243, DOI 10.1214/aoms/1177704864
   PYKE R, 1966, ANN MATH STAT, V37, P1439, DOI 10.1214/aoms/1177699138
   PYKE R, 1964, ANN MATH STAT, V35, P1746, DOI 10.1214/aoms/1177700397
   SERFOZO RF, 1969, THESIS NORTHWESTERN
   SMITH WL, 1955, PROC R SOC LON SER-A, V232, P6, DOI 10.1098/rspa.1955.0198
   YACKEL J, 1968, ANN MATH STAT, V39, P358, DOI 10.1214/aoms/1177698396
NR 15
TC 4
Z9 4
U1 0
U2 0
PU INST MATHEMATICAL STATISTICS
PI HAYWARD
PA IMS BUSINESS OFFICE-SUITE 7, 3401 INVESTMENT BLVD, HAYWARD, CA 94545
SN 0003-4851
J9 ANN MATH STAT
PY 1971
VL 42
IS 1
BP 176
EP &
DI 10.1214/aoms/1177693505
PG 0
WC Mathematics; Statistics & Probability
SC Mathematics
GA J2589
UT WOS:A1971J258900016
ER

PT J
AU SEN, PK
   GHOSH, M
AF SEN, PK
   GHOSH, M
TI BOUNDED LENGTH SEQUENTIAL CONFIDENCE INTERVALS BASED ON ONE-SAMPLE RANK
   ORDER STATISTICS
SO ANNALS OF MATHEMATICAL STATISTICS
LA English
DT Article
CR ANSCOMBE FJ, 1952, P CAMB PHILOS SOC, V48, P600
   BAHADUR RR, 1966, ANN MATH STAT, V37, P577, DOI 10.1214/aoms/1177699450
   Billingsley P., 1968, CONVERGENCE PROBABIL
   BRILLINGER DR, 1969, B AM MATH SOC, V75, P545, DOI 10.1090/S0002-9904-1969-12237-8
   CHERNOFF H, 1958, ANN MATH STAT, V29, P972, DOI 10.1214/aoms/1177706436
   CHOW YS, 1965, ANN MATH STAT, V36, P457, DOI 10.1214/aoms/1177700156
   DVORETZKY A, 1956, ANN MATH STAT, V27, P642, DOI 10.1214/aoms/1177728174
   FARRELL RH, 1966, ANN MATH STAT, V37, P586, DOI 10.1214/aoms/1177699452
   GEERTSEMA JC, 1968, ANN MATH STAT, V41, P1016
   Hajek J, 1967, THEORY RANK TESTS
   HOEFFDING W, 1963, J AM STAT ASSOC, V58, P13, DOI 10.2307/2282952
   HOEFFDING W, 1948, ANN MATH STAT, V19, P293, DOI 10.1214/aoms/1177730196
   JURECKOV.J, 1969, ANN MATH STAT, V40, P1889, DOI 10.1214/aoms/1177697273
   Loeve M., 1963, PROBABILITY THEORY
   PURI ML, 1964, ANN MATH STAT, V35, P102, DOI 10.1214/aoms/1177703733
   PYKE R, 1968, ANN MATH STAT, V39, P755, DOI 10.1214/aoms/1177698309
   PYKE R, 1968, ANN MATH STAT, V39, P1675
   SEN PK, 1966, ANN MATH STAT, V37, P1759, DOI 10.1214/aoms/1177699164
   Sproule R. N., 1969, THESIS U N CAROLINA
   STRASSEN V, 1967, 5TH P BERK S MATH 1, V2, P315
NR 20
TC 36
Z9 36
U1 0
U2 0
PU INST MATHEMATICAL STATISTICS
PI HAYWARD
PA IMS BUSINESS OFFICE-SUITE 7, 3401 INVESTMENT BLVD, HAYWARD, CA 94545
SN 0003-4851
J9 ANN MATH STAT
PY 1971
VL 42
IS 1
BP 189
EP &
DI 10.1214/aoms/1177693506
PG 0
WC Mathematics; Statistics & Probability
SC Mathematics
GA J2589
UT WOS:A1971J258900017
ER

PT J
AU DICKEY, JM
AF DICKEY, JM
TI WEIGHTED LIKELIHOOD RATIO, LINEAR HYPOTHESES ON NORMAL LOCATION
   PARAMETERS
SO ANNALS OF MATHEMATICAL STATISTICS
LA English
DT Article
CR ANDERSON TW, 1958, INTRODUCTION MULTIVA
   BARNARD GA, UNPUBLISHED SERIES L
   Bartlett M. S., 1957, BIOMETRIKA, V44, P533, DOI DOI 10.1093/BIOMET/44.3-4.533
   BLACKWELL D, 1954, THEORY GAMES STATIST
   CORNFIEL.J, 1966, J AM STAT ASSOC, V61, P577, DOI 10.2307/2282772
   de Finetti B., 1964, STUDIES SUBJECTIVE P
   de Finetti B., 1937, ANN I H POINCARE, V7, P1
   DeGroot M. H., 1970, OPTIMAL STATISTICAL
   DICKEY JM, 1967, ANN MATH STAT, V38, P503, DOI 10.1214/aoms/1177698966
   DICKEY JM, 1967, ANN MATH STAT, V38, P511, DOI 10.1214/aoms/1177698967
   DICKEY JM, 1967, ANN I STAT MATH, V19, P367, DOI 10.1007/BF02911688
   DICKEY JM, 1968, ANN MATH STAT, V39, P1615
   DICKEY JM, 1968, ANN MATH STATIST, V41, P214
   DICKEY JM, TO BE PUBLISHED
   EDWARDS W, 1963, PSYCHOL REV, V70, P193, DOI 10.1037/h0044139
   Good I., 1950, PROBABILITY WEIGHING
   Good I. J., 1965, ESTIMATION PROBABILI
   GOOD IJ, 1966, J I MATH APPL, V2, P364
   HILDRETH C, 1963, ECONOMETRICA, V38, P422
   Jeffreys H, 1940, ANN EUGENIC, V10, P48
   JEFFREYS H, 1948, THEORY PROBABILITY, P1961
   LINDLEY DV, 1957, BIOMETRIKA, V44, P187
   LINDLEY DV, 1968, J R STAT SOC B, V30, P31
   LINDLEY DV, 1965, INTRODUCTION PROBABI
   LINDLEY DV, 1961, 4TH P BERK S MATH ST, P453
   LUCE RD, 1965, READINGS MATHEMATICA, V2, P519
   LUENBERGER D., 1969, OPTIMIZATION VECTOR
   PATIL VH, 1965, BIOMETRIKA, V52, P267, DOI 10.2307/2333830
   Patil V. H., 1964, J INDIAN STAT ASSOC, V2, P21
   PATIL VH, 1964, J INDIAN STATIST ASS, V2, P110
   Raiffa H, 1961, APPLIED STATISTICAL
   Rao C.R, 1965, LINEAR STATISTICAL I
   SAVAGE LJ, 1963, PERSONAL COMMUNICATI
   SAVAGE LJ, 1959, FOUNDATIONS STATISTI
   SAVAGE LJ, UNPUBLISHED
   STEIN CM, 1962, J ROY STAT SOC B, V24, P265
   STONE M, 1964, J ROY STAT SOC B, V26, P274
   WALD A, 1947, SEQUENTIAL ANALYSIS
NR 38
TC 124
Z9 125
U1 0
U2 1
PU INST MATHEMATICAL STATISTICS
PI HAYWARD
PA IMS BUSINESS OFFICE-SUITE 7, 3401 INVESTMENT BLVD, HAYWARD, CA 94545
SN 0003-4851
J9 ANN MATH STAT
PY 1971
VL 42
IS 1
BP 204
EP &
DI 10.1214/aoms/1177693507
PG 0
WC Mathematics; Statistics & Probability
SC Mathematics
GA J2589
UT WOS:A1971J258900018
ER

PT J
AU AHLSWEDE, R
AF AHLSWEDE, R
TI GROUP CODES DO NOT ACHIEVE SHANNONS CHANNEL CAPACITY FOR GENERAL
   DISCRETE CHANNELS
SO ANNALS OF MATHEMATICAL STATISTICS
LA English
DT Article
CR AHLSWEDE R, 1968, Z WAHRSCHEINLICHKEIT, V11, P61, DOI 10.1007/BF00538386
   AHLSWEDE R, 1967, C INF THEOR DEBR HUN, P35
   AHLSWEDE R, 1970, ANN MATH STAT, V3, P1027
   AHLSWEDE R, 1969, LECTURE NOTES PROBAB, V89
   Augustin U., 1966, Z WAHRSCHEINLICHKEIT, V6, P10, DOI 10.1007/BF00531808
   BERLEKAMP ER, 1968, ALGEBRAIC CODING THE
   Dobrushin R. L., 1963, THEOR PROBAB APPL, V8, P47, DOI 10.1137/1108003
   DRYGAS H, 1965, Z WAHRSCHEINLICHKEIT, V4, P121, DOI 10.1007/BF00536746
   Elias P., 1955, IRE CONV REC, V3, P37
   ELIAS P, 1956, INFORMATION THEORY
   GALLAGER RG, 1968, INFORMATION THEORY R
   HAMMING RW, 1950, AT&T TECH J, V29, P147
   Peterson W. W., 1961, ERROR CORRECTING COD
   SLEPIAN D, 1956, AT&T TECH J, V35, P203
   WOLFOWITZ J, 1960, ARCH RATION MECH AN, V4, P371
   WOLFOWITZ J, 1963, INFORM CONTROL, V6, P49, DOI 10.1016/S0019-9958(63)90101-3
   Wolfowitz J., 1957, ILLINOIS J MATH, V1, P591
   Wolfowitz J., 1961, CODING THEOREMS INFO
NR 18
TC 15
Z9 15
U1 0
U2 0
PU INST MATHEMATICAL STATISTICS
PI HAYWARD
PA IMS BUSINESS OFFICE-SUITE 7, 3401 INVESTMENT BLVD, HAYWARD, CA 94545
SN 0003-4851
J9 ANN MATH STAT
PY 1971
VL 42
IS 1
BP 224
EP &
DI 10.1214/aoms/1177693508
PG 0
WC Mathematics; Statistics & Probability
SC Mathematics
GA J2589
UT WOS:A1971J258900019
ER

PT J
AU BHATTACHARYA, RN
AF BHATTACHARYA, RN
TI RATES OF WEAK CONVERGENCE AND ASYMPTOTIC EXPANSIONS FOR CLASSICAL
   CENTRAL LIMIT THEOREMS
SO ANNALS OF MATHEMATICAL STATISTICS
LA English
DT Article
CR Bahr B. V., 1967, ARK MAT, V7, P71, DOI 10.1007/BF02591678
   Bergstrom H, 1949, SKAND AKTUARIETIDSKR, V32, P37
   Berry AC, 1941, T AM MATH SOC, V49, P122, DOI 10.2307/1990053
   BHATTACHARYA RN, 1970, THEORY PROB APPLICAT, V15, P69
   BHATTACHARYA RN, 1967, THESIS U CHICAGO
   BHATTACHARYA RN, 1968, B AM MATH SOC, V75, P285
   BIKJALIS A, 1964, LITOV MAT SB, V4, P153
   BIKJALIS A, 1968, LITOV MAT SB, V8, P405
   BIKJALIS A, 1968, LITOV MAT SB, V8, P21
   BILLINGS.P, 1967, Z WAHRSCHEINLICHKEIT, V7, P1, DOI 10.1007/BF00532093
   BILLINGSLEY P, 1968, CONVERGENCE PROBABIL
   CRAMER H, 1963, RANDOM VARIABLES PRO
   DUDLEY RM, 1966, STUD MATH, V27, P251
   DUDLEY RM, 1968, ANN MATH STAT, V39, P1563
   Esseen C.-G., 1945, ACTA MATH, V77, P1, DOI 10.1007/BF02392223
   FELLER W, 1966, INTRODUCTION PROBABI, V2
   Gnedenko B. V., 1954, LIMIT DISTRIBUTIONS
   Ingham A. E., 1934, J LOND MATH SOC, V9, P29, DOI 10.1112/jlms/s1-9.1.29
   LOEVE M, 1963, PROBABILITY THEORY
   Petrov V. V., 1964, THEOR PROBAB APPL, V9, P343, DOI 10.1137/1109044
   RAO RR, 1962, ANN MATH STAT, V33, P659, DOI 10.1214/aoms/1177704588
   RAO RR, 1960, THESIS CALCUTTA U
NR 22
TC 8
Z9 8
U1 0
U2 0
PU INST MATHEMATICAL STATISTICS
PI CLEVELAND
PA 3163 SOMERSET DR, CLEVELAND, OH 44122 USA
SN 0003-4851
J9 ANN MATH STAT
JI Ann. Math. Stat.
PY 1971
VL 42
IS 1
BP 241
EP +
DI 10.1214/aoms/1177693509
PG 1
WC Mathematics; Statistics & Probability
SC Mathematics
GA J2589
UT WOS:A1971J258900020
ER

PT J
AU SUDDERTH, WD
AF SUDDERTH, WD
TI MEASURABLE GAMBLING PROBLEMS
SO ANNALS OF MATHEMATICAL STATISTICS
LA English
DT Article
CR Dubins LE, 1965, GAMBLE YOU MUST
   DUBINS LE, 1965, PAC J MATH, V14, P1121
   Mackey G. W., 1957, T AM MATH SOC, V85, P134, DOI 10.2307/1992966
   Parthasarathy K. R., 1967, PROBABILITY MEASURES
   RAOULT JP, 1964, PUBLICATIONS I STATI, V13, P79
   STRAUCH RE, 1968, T AM MATH SOC, V130, P184
   STRAUCH RE, 1966, ANN MATH STAT, V37, P871, DOI 10.1214/aoms/1177699369
   STRAUCH RE, 1967, T AM MATH SOC, V126, P64
   SUDDERTH WD, 1969, T AM MATH SOC, V135, P399, DOI 10.2307/1995023
   SUDDERTH WD, 1969, ANN MATH STAT, V40, P66, DOI 10.1214/aoms/1177697804
NR 10
TC 31
Z9 31
U1 0
U2 0
PU INST MATHEMATICAL STATISTICS
PI HAYWARD
PA IMS BUSINESS OFFICE-SUITE 7, 3401 INVESTMENT BLVD, HAYWARD, CA 94545
SN 0003-4851
J9 ANN MATH STAT
PY 1971
VL 42
IS 1
BP 260
EP &
DI 10.1214/aoms/1177693510
PG 0
WC Mathematics; Statistics & Probability
SC Mathematics
GA J2589
UT WOS:A1971J258900021
ER

PT J
AU STRAWDERMAN, WE
   COHEN, A
AF STRAWDERMAN, WE
   COHEN, A
TI ADMISSIBILITY OF ESTIMATORS OF MEAN VECTOR OF A MULTIVARIATE NORMAL
   DISTRIBUTION WITH QUADRATIC LOSS
SO ANNALS OF MATHEMATICAL STATISTICS
LA English
DT Article
CR APOSTOL TM, 1957, MATHEMATICAL ANALYSI
   Bochner S, 1949, FOURIER TRANSFORMS
   BROWN L, 1967, INVITED PAPER IMS M
   DUNFORD H, 1958, LINEAR OPERATORS   1
   Ferguson T., 1967, MATHEMATICAL STATIST
   Hirschmann II, 1955, CONVOLUTION TRANSFOR
   JAMES W, 1961, 4TH P BERK S MATH ST, V1, P361
   KARLIN S, 1956, ANN MATH STAT, V27, P272, DOI 10.1214/aoms/1177728259
   LEHMANN EL, 1959, TESTING STATISTICAL
   LUKACS E, 1962, CHARACTERISTIC FUNCT
   SACKS J, 1963, ANN MATH STAT, V34, P751, DOI 10.1214/aoms/1177704001
   SCLOVE SL, UNPUBLISHED
   STEIN C, 1959, ANN MATH STAT, V30, P970, DOI 10.1214/aoms/1177706080
   STEIN C, 1956, 3RD P BERK S MATH ST, V1, P197
   Stein C, 1966, RES PAPERS STATISTIC, P351
   Stein C., 1965, BERNOULLI BAYES LAPL, P217
   STEIN CM, 1962, J ROY STAT SOC B, V24, P265
   STRAWDERMAN WE, TO BE PUBLISHED
   STRAWDERMAN WE, 1969, THESIS RUTGERS STATE
   THOMPSON JR, 1968, J AM STAT ASSOC, V63, P113, DOI 10.2307/2283832
   TUKEY JW, 1960, J AM STAT ASSOC, V55, P80, DOI 10.2307/2282180
   Widder D V, 1941, LAPLACE TRANSFORM
NR 22
TC 22
Z9 22
U1 0
U2 1
PU INST MATHEMATICAL STATISTICS
PI CLEVELAND
PA 3163 SOMERSET DR, CLEVELAND, OH 44122 USA
SN 0003-4851
J9 ANN MATH STAT
JI Ann. Math. Stat.
PY 1971
VL 42
IS 1
BP 270
EP +
DI 10.1214/aoms/1177693511
PG 1
WC Mathematics; Statistics & Probability
SC Mathematics
GA J2589
UT WOS:A1971J258900022
ER

PT J
AU ROSS, SM
AF ROSS, SM
TI INFINITESIMAL LOOK-AHEAD STOPPING RULES
SO ANNALS OF MATHEMATICAL STATISTICS
LA English
DT Article
CR Bellman R., 1957, DYNAMIC PROGRAMMING
   Breiman L., 1968, PROBABILITY
   BREIMAN L, 1964, APPLIED COMBINATORIA
   CHOW YS, 1961, 4 P BERK S MATH STAT
   Derman C., 1960, NAVAL RES LOGIST Q, V7, P597, DOI 10.1002/nav.3800070429
   Doob J. L., 1957, STOCHASTIC PROCESSES
   DYNKIN EB, 1963, DOKL AKAD NAUK SSSR+, V150, P238
   DYNKIN EB, SOVIET MATH, V4, P627
   ELFVING G, 1967, J APPL PROBAB, V4, P77, DOI 10.2307/3212300
   GRIGELIONIS BI, 1966, THEOR PROBAB APPL+, V11, P541, DOI 10.1137/1111060
   MACQUEEN J, OPERATIONS RES, V8, P362
   ROSS SM, 1969, J APPL PROBAB, V6, P692, DOI 10.2307/3212114
   ROSS SM, 1968, ANN MATH STAT, V39, P2118, DOI 10.1214/aoms/1177698041
   SIEGMUND DO, 1967, ANN MATH STAT, V38, P1627, DOI 10.1214/aoms/1177698596
   TAYLOR HM, 1968, ANN MATH STAT, V39, P1333, DOI 10.1214/aoms/1177698259
NR 15
TC 22
Z9 22
U1 1
U2 2
PU INST MATHEMATICAL STATISTICS
PI HAYWARD
PA IMS BUSINESS OFFICE-SUITE 7, 3401 INVESTMENT BLVD, HAYWARD, CA 94545
SN 0003-4851
J9 ANN MATH STAT
PY 1971
VL 42
IS 1
BP 297
EP &
DI 10.1214/aoms/1177693512
PG 0
WC Mathematics; Statistics & Probability
SC Mathematics
GA J2589
UT WOS:A1971J258900023
ER

PT J
AU MENSING, RW
   DAVID, HT
AF MENSING, RW
   DAVID, HT
TI ABSORPTION PROBABILITIES FOR CERTAIN 2-DIMENSIONAL RANDOM WALKS
SO ANNALS OF MATHEMATICAL STATISTICS
LA English
DT Article
CR Billingsley P., 1968, CONVERGENCE PROBABIL
   Billingsley P., 1956, T AM MATH SOC, V83, P250, DOI 10.2307/1992915
   DAVID HT, 1958, ANN MATH STAT, V29, P842, DOI 10.1214/aoms/1177706540
   LIGGETT TM, 1968, J MATH MECH, V18, P559
   OKAMOTO M, 1959, ANN I STAT MATH, V11, P107, DOI 10.1007/BF01737398
   PYKE R, 1968, PROC CAMB PHILOS S-M, V64, P155
NR 6
TC 0
Z9 0
U1 0
U2 0
PU INST MATHEMATICAL STATISTICS
PI HAYWARD
PA IMS BUSINESS OFFICE-SUITE 7, 3401 INVESTMENT BLVD, HAYWARD, CA 94545
SN 0003-4851
J9 ANN MATH STAT
PY 1971
VL 42
IS 1
BP 304
EP &
DI 10.1214/aoms/1177693513
PG 0
WC Mathematics; Statistics & Probability
SC Mathematics
GA J2589
UT WOS:A1971J258900024
ER

PT J
AU GANSSLER, P
   PFANZAGL, J
AF GANSSLER, P
   PFANZAGL, J
TI CONVERGENCE OF CONDITIONAL EXPECTATIONS
SO ANNALS OF MATHEMATICAL STATISTICS
LA English
DT Article
CR Doob J. L., 1953, STOCHASTIC PROCESSES
   GIHMAN II, 1953, DAN SSSR, V91, P1003
   GIHMAN II, SELECTED TRANSLATION, V2, P5
   GIHMAN II, 1953, UKRAIN MAT Z, V5, P413
   Halmos P. R., 1964, MEASURE THEORY
   LEHMANN EL, 1959, TESTING STATISTICAL
   RHEFUS HH, 1969, THESIS U KOLN
   Steck G.P., 1957, U CALIF PUBL STAT, V2, P237
   TRUMBO B, 1965, THESIS U CHICAGO
NR 9
TC 6
Z9 6
U1 0
U2 0
PU INST MATHEMATICAL STATISTICS
PI HAYWARD
PA IMS BUSINESS OFFICE-SUITE 7, 3401 INVESTMENT BLVD, HAYWARD, CA 94545
SN 0003-4851
J9 ANN MATH STAT
PY 1971
VL 42
IS 1
BP 315
EP &
DI 10.1214/aoms/1177693514
PG 0
WC Mathematics; Statistics & Probability
SC Mathematics
GA J2589
UT WOS:A1971J258900025
ER

PT J
AU BEHNEN, K
AF BEHNEN, K
TI ASYMPTOTIC OPTIMALITY AND ARE OF CERTAIN RANK-ORDER TESTS UNDER
   CONTIGUITY
SO ANNALS OF MATHEMATICAL STATISTICS
LA English
DT Article
CR BHUCHONGKUL S, 1964, ANN MATH STAT, V35, P138, DOI 10.1214/aoms/1177703735
   BLOMQVIST N, 1950, ANN MATH STAT, V21, P593, DOI 10.1214/aoms/1177729754
   CHERNOFF H, 1958, ANN MATH STAT, V29, P972, DOI 10.1214/aoms/1177706436
   GOKHALE DV, 1968, ANN I STAT MATH, V20, P255, DOI 10.1007/BF02911639
   HAJEK J, 1962, ANN MATH STAT, V33, P1124, DOI 10.1214/aoms/1177704476
   Hajek J, 1967, THEORY RANK TESTS
   HAJEK J, 1968, STUDIES MATHEMATICAL
   HODGES JL, 1956, ANN MATH STAT, V27, P324, DOI 10.1214/aoms/1177728261
   HODGES JL, 1961, 4TH P BERK S MATH ST, V1, P307
   KELLERER HG, 1963, METRIKA, V7, P205, DOI 10.1007/BF02613972
   KONIJN HS, 1956, ANN MATH STAT, V27, P300, DOI 10.1214/aoms/1177728260
   Le Cam L, 1960, U CALIFORNIA PUBL ST, V3, P37
   LEHMANN EL, 1966, ANN MATH STAT, V37, P1137, DOI 10.1214/aoms/1177699260
   NEYMAN J, 1959, PROBABILITY STATISTI
   Sen P.K., 1968, SANKHYA A, V30, P23
   VANEEDEN C, 1963, ANN MATH STAT, V34, P1442
   WITTING H, 1970, ANGEWANDTE MATHEMATI
NR 17
TC 11
Z9 11
U1 0
U2 0
PU INST MATHEMATICAL STATISTICS
PI HAYWARD
PA IMS BUSINESS OFFICE-SUITE 7, 3401 INVESTMENT BLVD, HAYWARD, CA 94545
SN 0003-4851
J9 ANN MATH STAT
PY 1971
VL 42
IS 1
BP 325
EP &
DI 10.1214/aoms/1177693515
PG 0
WC Mathematics; Statistics & Probability
SC Mathematics
GA J2589
UT WOS:A1971J258900026
ER

PT J
AU RANDLES, RH
   HOLLANDE.M
AF RANDLES, RH
   HOLLANDE.M
TI GAMMA-MINIMAX SELECTION PROCEDURES IN TREATMENTS VERSUS CONTROL PROBLEMS
SO ANNALS OF MATHEMATICAL STATISTICS
LA English
DT Article
CR BLUM JR, 1967, ANN MATH STAT, V38, P1671, DOI 10.1214/aoms/1177698602
   HODGES JL, 1952, ANN MATH STAT, V23, P396, DOI 10.1214/aoms/1177729384
   LEHMANN EL, 1961, ANN MATH STAT, V32, P990, DOI 10.1214/aoms/1177704841
   LEHMANN EL, 1959, TESTING STATISTICAL
   MENGES G, 1966, UNTERNEHMENSFORSCHUN, V10, P81, DOI 10.1007/BF01951377
   SCHOENBERG TS, 1951, J ANALYSE MATH, V1, P331
   TONG YL, 1969, ANN MATH STAT, V40, P1300, DOI 10.1214/aoms/1177697504
NR 7
TC 14
Z9 14
U1 0
U2 0
PU INST MATHEMATICAL STATISTICS
PI HAYWARD
PA IMS BUSINESS OFFICE-SUITE 7, 3401 INVESTMENT BLVD, HAYWARD, CA 94545
SN 0003-4851
J9 ANN MATH STAT
PY 1971
VL 42
IS 1
BP 330
EP &
DI 10.1214/aoms/1177693516
PG 0
WC Mathematics; Statistics & Probability
SC Mathematics
GA J2589
UT WOS:A1971J258900027
ER

PT J
AU MYHRE, JM
   SAUNDERS, SC
AF MYHRE, JM
   SAUNDERS, SC
TI APPROXIMATE CONFIDENCE LIMITS FOR COMPLEX SYSTEMS WITH EXPONENTIAL
   COMPONENT LIVES
SO ANNALS OF MATHEMATICAL STATISTICS
LA English
DT Article
CR BIRNBAUM ZW, 1961, TECHNOMETRICS, V3, P55, DOI 10.2307/1266477
   BUEHLER RJ, 1957, J AM STAT ASSOC, V52, P482, DOI 10.2307/2281697
   COHEN AC, 1966, TECHNOMETRICS, V8, P539, DOI 10.2307/1266699
   ELMAWAZINY AH, 1967, J AM STAT ASSOC, V62, P1452
   Herd G. R., 1956, THESIS IOWA STATE CO
   LENTNER MM, 1963, J AM STAT ASSOC, V58, P670, DOI 10.2307/2282715
   LIPOW M, 1959, TABLES UPPER CONFIDE, V1, P2
   LIUSTERNICK LA, 1961, ELEMENTS FUNCTIONAL
   MADANSKY A, 1965, TECHNOMETRICS, V4, P495
   MADANSKY A, 1969, APPROXIMATE CONFIDEN, V2, P261
   MYHRE JM, 1968, TECHNOMETRICS, V10, P37, DOI 10.2307/1266222
   MYHRE JM, 1968, ANN MATH STAT, V39, P1463
   SAMPFORD MR, 1952, BIOMETRICS, V9, P307
   Wilks SS, 1938, ANN MATH STAT, V9, P60, DOI 10.1214/aoms/1177732360
NR 14
TC 3
Z9 3
U1 2
U2 2
PU INST MATHEMATICAL STATISTICS
PI HAYWARD
PA IMS BUSINESS OFFICE-SUITE 7, 3401 INVESTMENT BLVD, HAYWARD, CA 94545
SN 0003-4851
J9 ANN MATH STAT
PY 1971
VL 42
IS 1
BP 342
EP &
DI 10.1214/aoms/1177693517
PG 0
WC Mathematics; Statistics & Probability
SC Mathematics
GA J2589
UT WOS:A1971J258900028
ER

PT J
AU KAPPENMAN, RF
AF KAPPENMAN, RF
TI NOTE ON MULTIVARIATE T-RATIO DISTRIBUTION
SO ANNALS OF MATHEMATICAL STATISTICS
LA English
DT Note
CR GEISSER S, 1965, ANN MATH STAT, V36, P150, DOI 10.1214/aoms/1177700279
   PRESS SJ, 1969, J AM STAT ASSOC, V64, P242, DOI 10.2307/2283732
   Rao C.R, 1965, LINEAR STATISTICAL I
NR 3
TC 4
Z9 4
U1 0
U2 0
PU INST MATHEMATICAL STATISTICS
PI CLEVELAND
PA 3163 SOMERSET DR, CLEVELAND, OH 44122 USA
SN 0003-4851
J9 ANN MATH STAT
JI Ann. Math. Stat.
PY 1971
VL 42
IS 1
BP 349
EP +
DI 10.1214/aoms/1177693518
PG 1
WC Mathematics; Statistics & Probability
SC Mathematics
GA J2589
UT WOS:A1971J258900029
ER

PT J
AU DARST, RB
AF DARST, RB
TI UNIVERSAL MEASURABILITY AND PERFECT PROBABILITY
SO ANNALS OF MATHEMATICAL STATISTICS
LA English
DT Note
CR BLACKWELL D, 1956, 3 P BERK S MATH STAT, V2
   DARST RB, 1969, P AM MATH SOC, V20, P348, DOI 10.2307/2035651
   KALLIANPUR G, 1959, ANN MATH STAT, V30, P169, DOI 10.1214/aoms/1177706370
   Kuratowski K., 1966, TOPOLOGY, VI
   Rothberger F, 1941, P CAMB PHILOS SOC, V37, P109
   SAZONOV VV, 1962, IZV AKAD NAUK SSSR M, V27, P391
   Sazonov VV, 1965, AM MATH SOC TRANSL 2, V48, P229
NR 7
TC 4
Z9 4
U1 0
U2 0
PU INST MATHEMATICAL STATISTICS
PI HAYWARD
PA IMS BUSINESS OFFICE-SUITE 7, 3401 INVESTMENT BLVD, HAYWARD, CA 94545
SN 0003-4851
J9 ANN MATH STAT
PY 1971
VL 42
IS 1
BP 352
EP &
DI 10.1214/aoms/1177693519
PG 0
WC Mathematics; Statistics & Probability
SC Mathematics
GA J2589
UT WOS:A1971J258900030
ER

PT J
AU COHEN, A
   STRAWDER.WE
AF COHEN, A
   STRAWDER.WE
TI UNBIASEDNESS OF TESTS FOR HOMOGENEITY OF VARIANCES
SO ANNALS OF MATHEMATICAL STATISTICS
LA English
DT Note
CR BARTLETT MS, 1946, J ROY STAT SOC B, V8, P128
   BECHHOFER RE, 1960, J AM STAT ASSOC, V55, P245, DOI 10.2307/2281738
   Brown GW, 1939, ANN MATH STAT, V10, P119, DOI 10.1214/aoms/1177732210
   Cochran WG, 1941, ANN EUGENIC, V11, P47
   HARTLEY HO, 1950, BIOMETRIKA, V37, P308, DOI 10.2307/2332383
   LAUE RV, 1965, THESIS RUTGERS U
   MATTHES TK, 1967, ANN MATH STAT, V38, P681, DOI 10.1214/aoms/1177698862
   MUDHOLKAR GS, 1966, P AM MATH SOC, V17, P1327, DOI 10.2307/2035735
   Pitman EJG, 1939, BIOMETRIKA, V31, P200, DOI 10.2307/2334983
   RAMACHANDRAN KV, 1956, ANN MATH STAT, V27, P825, DOI 10.1214/aoms/1177728189
   STEVENS WS, 1936, J GENET, V33, P398
NR 11
TC 14
Z9 14
U1 0
U2 0
PU INST MATHEMATICAL STATISTICS
PI HAYWARD
PA IMS BUSINESS OFFICE-SUITE 7, 3401 INVESTMENT BLVD, HAYWARD, CA 94545
SN 0003-4851
J9 ANN MATH STAT
PY 1971
VL 42
IS 1
BP 355
EP &
DI 10.1214/aoms/1177693520
PG 0
WC Mathematics; Statistics & Probability
SC Mathematics
GA J2589
UT WOS:A1971J258900031
ER

PT J
AU KRISHNAJI, N
AF KRISHNAJI, N
TI CHARACTERIZING PROPERTY OF EXPONENTIAL DISTRIBUTION
SO ANNALS OF MATHEMATICAL STATISTICS
LA English
DT Note
CR FELLER W, 1957, INTRODUCTION PROBABI, V1
NR 1
TC 11
Z9 11
U1 0
U2 0
PU INST MATHEMATICAL STATISTICS
PI CLEVELAND
PA 3163 SOMERSET DR, CLEVELAND, OH 44122 USA
SN 0003-4851
J9 ANN MATH STAT
JI Ann. Math. Stat.
PY 1971
VL 42
IS 1
BP 361
EP +
DI 10.1214/aoms/1177693521
PG 1
WC Mathematics; Statistics & Probability
SC Mathematics
GA J2589
UT WOS:A1971J258900032
ER

PT J
AU AIGNER, M
AF AIGNER, M
TI CHARACTERIZATION OF CERTAIN ASSOCIATION SCHEMES
SO ANNALS OF MATHEMATICAL STATISTICS
LA English
DT Note
CR AIGNER M, 1969, J COMB THEORY, V6, P282, DOI 10.1016/S0021-9800(69)80089-X
   BOSE RC, 1963, PAC J MATH, V13, P389
   Bose R L R C, 1967, J COMBINATORIAL THEO, V3, P366, DOI 10.1016/S0021-9800(67)80104-2
   HOFFMAN AJ, 1964, ANN MATH STAT, V35, P883, DOI 10.1214/aoms/1177703593
   HOFFMAN AJ, 1960, ANN MATH STAT, V31, P492, DOI 10.1214/aoms/1177705914
   MOON JW, 1963, ANN MATH STAT, V34, P664, DOI 10.1214/aoms/1177704179
   SHRIKHANDE SS, 1959, ANN MATH STAT, V30, P781, DOI 10.1214/aoms/1177706207
NR 7
TC 0
Z9 0
U1 0
U2 0
PU INST MATHEMATICAL STATISTICS
PI HAYWARD
PA IMS BUSINESS OFFICE-SUITE 7, 3401 INVESTMENT BLVD, HAYWARD, CA 94545
SN 0003-4851
J9 ANN MATH STAT
PY 1971
VL 42
IS 1
BP 363
EP &
DI 10.1214/aoms/1177693522
PG 0
WC Mathematics; Statistics & Probability
SC Mathematics
GA J2589
UT WOS:A1971J258900033
ER

PT J
AU MILNE, RK
AF MILNE, RK
TI SIMPLE PROOFS OF SOME THEOREMS ON POINT PROCESSES
SO ANNALS OF MATHEMATICAL STATISTICS
LA English
DT Note
CR BEUTLER FJ, 1966, ACTA MATH-UPPSALA, V116, P159, DOI 10.1007/BF02392816
   FIEGER W, 1964, 3 T PRAG C INF THEOR, P107
   FIEGER W, 1965, MATH SCAND, V16, P121
   GOLDMAN JR, 1967, ANN MATH STAT, V38, P771, DOI 10.1214/aoms/1177698870
   KHINCHIN AY, 1955, MATHEMATICAL METHODS
   LEADBETTER MR, 1968, P AM MATH SOC, V19, P115
   Matthes K., 1963, JB DTSCH MATH VEREIN, V66, P66
   Slivnyak I. M., 1962, THEOR PROBAB APPL, V7, P336, DOI 10.1137/1107034
   SLIVNYAK IM, 1966, VESTNIK HARKOV GOS U, V14, P73
   ZITEK F, 1957, CZECHOSLOVAK MATH J, V7, P318
NR 10
TC 6
Z9 6
U1 0
U2 0
PU INST MATHEMATICAL STATISTICS
PI HAYWARD
PA IMS BUSINESS OFFICE-SUITE 7, 3401 INVESTMENT BLVD, HAYWARD, CA 94545
SN 0003-4851
J9 ANN MATH STAT
PY 1971
VL 42
IS 1
BP 368
EP &
DI 10.1214/aoms/1177693523
PG 0
WC Mathematics; Statistics & Probability
SC Mathematics
GA J2589
UT WOS:A1971J258900034
ER

PT J
AU PFANZAGL, J
AF PFANZAGL, J
TI COUNTEREXAMPLE TO A LEMMA OF BROWN,LD
SO ANNALS OF MATHEMATICAL STATISTICS
LA English
DT Note
CR BROWN L, 1964, ANN MATH STAT, V35, P1456, DOI 10.1214/aoms/1177700373
NR 1
TC 0
Z9 0
U1 1
U2 1
PU INST MATHEMATICAL STATISTICS
PI HAYWARD
PA IMS BUSINESS OFFICE-SUITE 7, 3401 INVESTMENT BLVD, HAYWARD, CA 94545
SN 0003-4851
J9 ANN MATH STAT
PY 1971
VL 42
IS 1
BP 373
EP &
DI 10.1214/aoms/1177693524
PG 0
WC Mathematics; Statistics & Probability
SC Mathematics
GA J2589
UT WOS:A1971J258900035
ER

PT J
AU KENNEDY, DP
AF KENNEDY, DP
TI FUNCTIONAL CENTRAL LIMIT THEOREM FOR K-DIMENSIONAL RENEWAL THEORY
SO ANNALS OF MATHEMATICAL STATISTICS
LA English
DT Note
CR BICKEL PJ, 1965, ANN MATH STAT, V36, P946, DOI 10.1214/aoms/1177700067
   Billingsley P., 1968, CONVERGENCE PROBABIL
   FARRELL RH, 1964, ANN MATH STAT, V35, P1332, DOI 10.1214/aoms/1177703290
   FARRELL RH, 1966, ANN MATH STAT, V37, P1510, DOI 10.1214/aoms/1177699143
   STAM AJ, 1968, Z WAHRSCHEINLICHKEIT, V10, P81, DOI 10.1007/BF00572924
NR 5
TC 3
Z9 3
U1 0
U2 0
PU INST MATHEMATICAL STATISTICS
PI HAYWARD
PA IMS BUSINESS OFFICE-SUITE 7, 3401 INVESTMENT BLVD, HAYWARD, CA 94545
SN 0003-4851
J9 ANN MATH STAT
PY 1971
VL 42
IS 1
BP 376
EP &
DI 10.1214/aoms/1177693525
PG 0
WC Mathematics; Statistics & Probability
SC Mathematics
GA J2589
UT WOS:A1971J258900036
ER

PT J
AU FELDMAN, J
   SMORODIN.M
AF FELDMAN, J
   SMORODIN.M
TI BERNOULLI FLOWS WITH INFINITE ENTROPY
SO ANNALS OF MATHEMATICAL STATISTICS
LA English
DT Note
CR Billingsley P., 1965, ERGODIC THEORY INFOR
   Doob J. L., 1953, STOCHASTIC PROCESSES
   FRIEDMAN NA, TO BE PUBLISHED
   ORNSTEIN D, TO BE PUBLISHED
NR 4
TC 1
Z9 1
U1 0
U2 0
PU INST MATHEMATICAL STATISTICS
PI HAYWARD
PA IMS BUSINESS OFFICE-SUITE 7, 3401 INVESTMENT BLVD, HAYWARD, CA 94545
SN 0003-4851
J9 ANN MATH STAT
PY 1971
VL 42
IS 1
BP 381
EP &
DI 10.1214/aoms/1177693526
PG 0
WC Mathematics; Statistics & Probability
SC Mathematics
GA J2589
UT WOS:A1971J258900037
ER

PT J
AU AHUJA, JC
AF AHUJA, JC
TI DISTRIBUTION OF SUM OF INDEPENDENT DECAPITATED NEGATIVE BINOMIAL
   VARIABLES
SO ANNALS OF MATHEMATICAL STATISTICS
LA English
DT Note
CR FELLER W, 1968, INTRODUCTION PROBABI, V1
   GOVINDARAJULU Z, 1962, J AM STAT ASSOC, V57, P906, DOI 10.2307/2281818
   PATIL GP, 1963, ANN MATH STAT, V34, P1050, DOI 10.1214/aoms/1177704029
   Pearson K, 1934, TABLES INCOMPLETE BE
   RIDER PR, 1962, J AM STAT ASSOC, V57, P439, DOI 10.2307/2281650
   RIDER PR, 1955, J AM STAT ASSOC, V50, P877, DOI 10.2307/2281172
NR 6
TC 10
Z9 10
U1 0
U2 0
PU INST MATHEMATICAL STATISTICS
PI HAYWARD
PA IMS BUSINESS OFFICE-SUITE 7, 3401 INVESTMENT BLVD, HAYWARD, CA 94545
SN 0003-4851
J9 ANN MATH STAT
PY 1971
VL 42
IS 1
BP 383
EP &
DI 10.1214/aoms/1177693527
PG 0
WC Mathematics; Statistics & Probability
SC Mathematics
GA J2589
UT WOS:A1971J258900038
ER

PT J
AU STRAWDERMAN, WE
AF STRAWDERMAN, WE
TI PROPER BAYES MINIMAX ESTIMATORS OF MULTIVARIATE NORMAL MEAN
SO ANNALS OF MATHEMATICAL STATISTICS
LA English
DT Note
CR BARANCHI.AJ, 1970, ANN MATH STAT, V41, P642, DOI 10.1214/aoms/1177697104
   BARANCHIK AJ, 1964, 51 STANF U TECHN REP
   BROWN LS, TO BE PUBLISHED
   STRAWDERMAN W, 1970, 6 P BERK S MATH STAT
   STRAWDERMAN WF, 1969, THESIS RUTGERS U
NR 5
TC 172
Z9 173
U1 0
U2 1
PU INST MATHEMATICAL STATISTICS
PI CLEVELAND
PA 3163 SOMERSET DR, CLEVELAND, OH 44122 USA
SN 0003-4851
J9 ANN MATH STAT
JI Ann. Math. Stat.
PY 1971
VL 42
IS 1
BP 385
EP +
DI 10.1214/aoms/1177693528
PG 1
WC Mathematics; Statistics & Probability
SC Mathematics
GA J2589
UT WOS:A1971J258900039
ER

PT J
AU GERBER, HU
AF GERBER, HU
TI DISCOUNTED CENTRAL LIMIT THEOREM AND ITS BERRY-ESSEEN ANALOGUE
SO ANNALS OF MATHEMATICAL STATISTICS
LA English
DT Note
CR Berry AC, 1941, T AM MATH SOC, V49, P122, DOI 10.2307/1990053
   ESSEEN C.-G., 1945, ACTA MATH, V77, P1, DOI 10.1007/BF02392223
   FELLER W, 1966, INTRODUCTION PROBABI, V2
   Gnedenko B. V., 1954, LIMIT DISTRIBUTIONS
   WHITT W, 1970, DISCOUNTED CENTRAL L
NR 5
TC 18
Z9 19
U1 0
U2 0
PU INST MATHEMATICAL STATISTICS
PI HAYWARD
PA IMS BUSINESS OFFICE-SUITE 7, 3401 INVESTMENT BLVD, HAYWARD, CA 94545
SN 0003-4851
J9 ANN MATH STAT
PY 1971
VL 42
IS 1
BP 389
EP &
DI 10.1214/aoms/1177693529
PG 0
WC Mathematics; Statistics & Probability
SC Mathematics
GA J2589
UT WOS:A1971J258900040
ER

PT J
AU CHOW, YS
AF CHOW, YS
TI LP-CONVERGENCE FOR N-1/PSN,O LESS THAN P LESS THAN 2
SO ANNALS OF MATHEMATICAL STATISTICS
LA English
DT Note
CR BURKHOLD.DL, 1966, ANN MATH STAT, V37, P1494, DOI 10.1214/aoms/1177699141
   CHATTERJ.SD, 1969, ANN MATH STAT, V40, P1068, DOI 10.1214/aoms/1177697609
   ESSEEN C, 1965, ANN MATH STAT, V36, P299
   PYKE R, 1968, ANN MATH STAT, V39, P379, DOI 10.1214/aoms/1177698400
NR 4
TC 24
Z9 24
U1 0
U2 0
PU INST MATHEMATICAL STATISTICS
PI HAYWARD
PA IMS BUSINESS OFFICE-SUITE 7, 3401 INVESTMENT BLVD, HAYWARD, CA 94545
SN 0003-4851
J9 ANN MATH STAT
PY 1971
VL 42
IS 1
BP 393
EP &
DI 10.1214/aoms/1177693530
PG 0
WC Mathematics; Statistics & Probability
SC Mathematics
GA J2589
UT WOS:A1971J258900041
ER

PT J
AU YALAVIGI, CC
AF YALAVIGI, CC
TI SERIES OF TOURNAMENTAL DESIGNS
SO ANNALS OF MATHEMATICAL STATISTICS
LA English
DT Note
CR Bose RC, 1939, ANN EUGENIC, V9, P353
   YALAVIGI CC, 1968, 34 C IND MATH SOC
NR 2
TC 1
Z9 1
U1 0
U2 0
PU INST MATHEMATICAL STATISTICS
PI HAYWARD
PA IMS BUSINESS OFFICE-SUITE 7, 3401 INVESTMENT BLVD, HAYWARD, CA 94545
SN 0003-4851
J9 ANN MATH STAT
PY 1971
VL 42
IS 1
BP 395
EP &
DI 10.1214/aoms/1177693531
PG 0
WC Mathematics; Statistics & Probability
SC Mathematics
GA J2589
UT WOS:A1971J258900042
ER

PT J
AU RUIZMONC.A
AF RUIZMONC.A
TI FIRST PASSAGES FOR SN/N1/2
SO ANNALS OF MATHEMATICAL STATISTICS
LA English
DT Note
CR DVORETZKY A, 1965, 5 BERKELEY S, V1, P441
   RUIZMONCAYO A, 1968, ANN MATH STAT, V39, P1905, DOI 10.1214/aoms/1177698020
   SEIGMUND DO, 1967, ANN MATH STATIST, V38, P1627
NR 3
TC 0
Z9 0
U1 0
U2 0
PU INST MATHEMATICAL STATISTICS
PI HAYWARD
PA IMS BUSINESS OFFICE-SUITE 7, 3401 INVESTMENT BLVD, HAYWARD, CA 94545
SN 0003-4851
J9 ANN MATH STAT
PY 1971
VL 42
IS 1
BP 398
EP &
DI 10.1214/aoms/1177693532
PG 0
WC Mathematics; Statistics & Probability
SC Mathematics
GA J2589
UT WOS:A1971J258900043
ER

PT J
AU CHOW, YS
   TEICHER, H
AF CHOW, YS
   TEICHER, H
TI ALMOST CERTAIN SUMMABILITY OF INDEPENDENT, IDENTICALLY DISTRIBUTED
   RANDOM VARIABLES
SO ANNALS OF MATHEMATICAL STATISTICS
LA English
DT Note
CR Hardy G. H., 1949, DIVERGENT SERIES
NR 1
TC 10
Z9 12
U1 0
U2 0
PU INST MATHEMATICAL STATISTICS
PI HAYWARD
PA IMS BUSINESS OFFICE-SUITE 7, 3401 INVESTMENT BLVD, HAYWARD, CA 94545
SN 0003-4851
J9 ANN MATH STAT
PY 1971
VL 42
IS 1
BP 401
EP &
DI 10.1214/aoms/1177693533
PG 0
WC Mathematics; Statistics & Probability
SC Mathematics
GA J2589
UT WOS:A1971J258900044
ER

PT J
AU MADSEN, RW
AF MADSEN, RW
TI ERGODIC THEOREMS OF PAZ,A
SO ANNALS OF MATHEMATICAL STATISTICS
LA English
DT Note
CR BLUM JJ, TO BE PUBLISHED
   Dobrushin R. L., 1956, THEOR PROBAB APPL, V1, P329, DOI 10.1137/1101029
   Dobrushin RL, 1956, THEOR PROBAB APPL, V1, P65, DOI 10.1137/1101006
   Doob J. L., 1953, STOCHASTIC PROCESSES
   PAZ A, 1970, ANN MATH STAT, V41, P539, DOI 10.1214/aoms/1177697094
NR 5
TC 5
Z9 5
U1 0
U2 0
PU INST MATHEMATICAL STATISTICS
PI HAYWARD
PA IMS BUSINESS OFFICE-SUITE 7, 3401 INVESTMENT BLVD, HAYWARD, CA 94545
SN 0003-4851
J9 ANN MATH STAT
PY 1971
VL 42
IS 1
BP 405
EP &
DI 10.1214/aoms/1177693534
PG 0
WC Mathematics; Statistics & Probability
SC Mathematics
GA J2589
UT WOS:A1971J258900045
ER

PT J
AU GILAT, D
AF GILAT, D
TI NONEXISTENCE OF A 3 SERIES CONDITION FOR SERIES OF NONINDEPENDENT RANDOM
   VARIABLES
SO ANNALS OF MATHEMATICAL STATISTICS
LA English
DT Note
CR Neveu J, 1965, MATHEMATICAL FOUNDAT
NR 1
TC 3
Z9 3
U1 0
U2 0
PU INST MATHEMATICAL STATISTICS
PI HAYWARD
PA IMS BUSINESS OFFICE-SUITE 7, 3401 INVESTMENT BLVD, HAYWARD, CA 94545
SN 0003-4851
J9 ANN MATH STAT
PY 1971
VL 42
IS 1
BP 409
EP &
DI 10.1214/aoms/1177693535
PG 0
WC Mathematics; Statistics & Probability
SC Mathematics
GA J2589
UT WOS:A1971J258900046
ER

PT J
AU HUFF, BW
AF HUFF, BW
TI SUPERPOSITIONS AND CONTINUITY OF INFINITELY DIVISIBLE DISTRIBUTIONS
SO ANNALS OF MATHEMATICAL STATISTICS
LA English
DT Note
CR FISZ M, 1963, Z WAHRSCHEINLICHKEIT, V1, P335, DOI 10.1007/BF00533408
   Hartman P, 1942, AM J MATH, V64, P273, DOI 10.2307/2371683
   HUFF BW, 1969, SANKHYA SER A, V31, P403
   TUCKER HG, 1962, PAC J MATH, V12, P1125
   ZOLOTAREV VM, 1958, THEOR PROBAB APPL, V3, P185, DOI 10.1137/1103017
NR 5
TC 0
Z9 0
U1 0
U2 0
PU INST MATHEMATICAL STATISTICS
PI HAYWARD
PA IMS BUSINESS OFFICE-SUITE 7, 3401 INVESTMENT BLVD, HAYWARD, CA 94545
SN 0003-4851
J9 ANN MATH STAT
PY 1971
VL 42
IS 1
BP 410
EP &
DI 10.1214/aoms/1177693536
PG 0
WC Mathematics; Statistics & Probability
SC Mathematics
GA J2589
UT WOS:A1971J258900047
ER

PT J
AU MOHANTY, SG
AF MOHANTY, SG
TI SHORT PROOF OF STECKS RESULT ON 2-SAMPLE SMIRNOV STATISTICS
SO ANNALS OF MATHEMATICAL STATISTICS
LA English
DT Note
CR STECK GP, 1969, ANN MATH STAT, V40, P1449, DOI 10.1214/aoms/1177697516
   STECK GP, 1971, ANN MATH STAT, V42, P1, DOI 10.1214/aoms/1177693490
NR 2
TC 4
Z9 4
U1 0
U2 0
PU INST MATHEMATICAL STATISTICS
PI HAYWARD
PA IMS BUSINESS OFFICE-SUITE 7, 3401 INVESTMENT BLVD, HAYWARD, CA 94545
SN 0003-4851
J9 ANN MATH STAT
PY 1971
VL 42
IS 1
BP 413
EP &
DI 10.1214/aoms/1177693537
PG 0
WC Mathematics; Statistics & Probability
SC Mathematics
GA J2589
UT WOS:A1971J258900048
ER

PT J
AU CUPPENS, R
AF CUPPENS, R
TI CORRECTION
SO ANNALS OF MATHEMATICAL STATISTICS
LA English
DT Correction, Addition
CR CUPPENS R, 1970, ANN MATH STAT, V41, P1096, DOI 10.1214/aoms/1177696990
NR 1
TC 0
Z9 0
U1 0
U2 0
PU INST MATHEMATICAL STATISTICS
PI HAYWARD
PA IMS BUSINESS OFFICE-SUITE 7, 3401 INVESTMENT BLVD, HAYWARD, CA 94545
SN 0003-4851
J9 ANN MATH STAT
PY 1971
VL 42
IS 1
BP 415
EP &
DI 10.1214/aoms/1177693538
PG 0
WC Mathematics; Statistics & Probability
SC Mathematics
GA J2589
UT WOS:A1971J258900049
ER

PT J
AU GASTWIRT.JL
AF GASTWIRT.JL
TI SIGN TEST FOR SYMMETRY
SO ANNALS OF MATHEMATICAL STATISTICS
LA English
DT Meeting Abstract
NR 0
TC 0
Z9 0
U1 0
U2 0
PU INST MATHEMATICAL STATISTICS
PI HAYWARD
PA IMS BUSINESS OFFICE-SUITE 7, 3401 INVESTMENT BLVD, HAYWARD, CA 94545
SN 0003-4851
J9 ANN MATH STAT
PY 1971
VL 42
IS 1
BP 416
EP &
PG 0
WC Mathematics; Statistics & Probability
SC Mathematics
GA J2589
UT WOS:A1971J258900052
ER

PT J
AU RAJGULAT.B
AF RAJGULAT.B
TI CONSTRUCTION OF MAXIMAL DESIGNS OF RESOLUTION VII AND VIII
SO ANNALS OF MATHEMATICAL STATISTICS
LA English
DT Meeting Abstract
NR 0
TC 0
Z9 0
U1 0
U2 0
PU INST MATHEMATICAL STATISTICS
PI HAYWARD
PA IMS BUSINESS OFFICE-SUITE 7, 3401 INVESTMENT BLVD, HAYWARD, CA 94545
SN 0003-4851
J9 ANN MATH STAT
PY 1971
VL 42
IS 1
BP 416
EP &
PG 0
WC Mathematics; Statistics & Probability
SC Mathematics
GA J2589
UT WOS:A1971J258900051
ER

PT J
AU WAHBA, G
AF WAHBA, G
TI SOME PROBLEMS IN REGRESSION DESIGN AND APPROXIMATION THEORY
SO ANNALS OF MATHEMATICAL STATISTICS
LA English
DT Meeting Abstract
NR 0
TC 0
Z9 0
U1 0
U2 0
PU INST MATHEMATICAL STATISTICS
PI HAYWARD
PA IMS BUSINESS OFFICE-SUITE 7, 3401 INVESTMENT BLVD, HAYWARD, CA 94545
SN 0003-4851
J9 ANN MATH STAT
PY 1971
VL 42
IS 1
BP 416
EP &
PG 0
WC Mathematics; Statistics & Probability
SC Mathematics
GA J2589
UT WOS:A1971J258900050
ER

PT J
AU PADGETT, WJ
   TSOKOS, CP
AF PADGETT, WJ
   TSOKOS, CP
TI SEMI-STOCHASTIC MODEL ARISING IN A BIOLOGICAL SYSTEM
SO ANNALS OF MATHEMATICAL STATISTICS
LA English
DT Meeting Abstract
CR BELLMAN, 1960, B MATH BIOPHYS, V22, P181
   BELLMAN, 1960, B MATH BIOPHYS, V22, P309
NR 2
TC 0
Z9 0
U1 0
U2 0
PU INST MATHEMATICAL STATISTICS
PI HAYWARD
PA IMS BUSINESS OFFICE-SUITE 7, 3401 INVESTMENT BLVD, HAYWARD, CA 94545
SN 0003-4851
J9 ANN MATH STAT
PY 1971
VL 42
IS 1
BP 417
EP &
PG 0
WC Mathematics; Statistics & Probability
SC Mathematics
GA J2589
UT WOS:A1971J258900055
ER

PT J
AU RESNICK, SI
AF RESNICK, SI
TI LIMIT LAWS FOR RECORD VALUES OF AN IID SEQUENCE OF RANDOM VARIABLES
SO ANNALS OF MATHEMATICAL STATISTICS
LA English
DT Meeting Abstract
NR 0
TC 0
Z9 0
U1 0
U2 0
PU INST MATHEMATICAL STATISTICS
PI HAYWARD
PA IMS BUSINESS OFFICE-SUITE 7, 3401 INVESTMENT BLVD, HAYWARD, CA 94545
SN 0003-4851
J9 ANN MATH STAT
PY 1971
VL 42
IS 1
BP 417
EP &
PG 0
WC Mathematics; Statistics & Probability
SC Mathematics
GA J2589
UT WOS:A1971J258900054
ER

PT J
AU SUBRAHMA.K
   SUBRAHMA.K
AF SUBRAHMA.K
   SUBRAHMA.K
TI DISTRIBUTION OF D2P+Q-DQ2 AND D2P+Q/DQ2 STATISTICS
SO ANNALS OF MATHEMATICAL STATISTICS
LA English
DT Meeting Abstract
CR RAO, 1950, SANKHYA            A, V10, P257
   Rao CR, 1949, SANKHYA, V9, P343
NR 2
TC 0
Z9 0
U1 0
U2 0
PU INST MATHEMATICAL STATISTICS
PI HAYWARD
PA IMS BUSINESS OFFICE-SUITE 7, 3401 INVESTMENT BLVD, HAYWARD, CA 94545
SN 0003-4851
J9 ANN MATH STAT
PY 1971
VL 42
IS 1
BP 417
EP &
PG 0
WC Mathematics; Statistics & Probability
SC Mathematics
GA J2589
UT WOS:A1971J258900053
ER

PT J
AU PADGETT, WJ
   TSOKOS, CP
AF PADGETT, WJ
   TSOKOS, CP
TI STOCHASTIC MODEL FOR CHEMOTHERAPY - COMPUTER SIMULATION
SO ANNALS OF MATHEMATICAL STATISTICS
LA English
DT Meeting Abstract
CR BASSINGTHWAIGHT.JB, 1970, SCIENCE, V167, P1347
   BELLMAN, 1960, B MATH BIOPHYS, V22, P181
   BELLMAN, 1960, B MATH BIOPHYS, V22, P309
NR 3
TC 0
Z9 0
U1 0
U2 1
PU INST MATHEMATICAL STATISTICS
PI HAYWARD
PA IMS BUSINESS OFFICE-SUITE 7, 3401 INVESTMENT BLVD, HAYWARD, CA 94545
SN 0003-4851
J9 ANN MATH STAT
PY 1971
VL 42
IS 1
BP 418
EP &
PG 0
WC Mathematics; Statistics & Probability
SC Mathematics
GA J2589
UT WOS:A1971J258900059
ER

PT J
AU PADGETT, WJ
   TSOKOS, CP
AF PADGETT, WJ
   TSOKOS, CP
TI EXISTENCE OF A UNIQUE SOLUTION OF A STOCHASTIC INTEGRAL EQUATION IN
   HEREDITARY MECHANICS
SO ANNALS OF MATHEMATICAL STATISTICS
LA English
DT Meeting Abstract
CR DISTEFANO, 1968, J MATH ANAL APPL, V23, P365
   TSOKOS CP, 1969, MATH SYST THEORY, V3, P222, DOI 10.1007/BF01703921
NR 2
TC 0
Z9 0
U1 0
U2 1
PU INST MATHEMATICAL STATISTICS
PI HAYWARD
PA IMS BUSINESS OFFICE-SUITE 7, 3401 INVESTMENT BLVD, HAYWARD, CA 94545
SN 0003-4851
J9 ANN MATH STAT
PY 1971
VL 42
IS 1
BP 418
EP &
PG 0
WC Mathematics; Statistics & Probability
SC Mathematics
GA J2589
UT WOS:A1971J258900058
ER

PT J
AU PADGETT, WJ
   TSOKOS, CP
AF PADGETT, WJ
   TSOKOS, CP
TI STOCHASTIC INTEGRAL EQUATION OF VOLTERRA TYPE IN TELEPHONE TRAFFIC
   THEORY
SO ANNALS OF MATHEMATICAL STATISTICS
LA English
DT Meeting Abstract
CR FORTET, 1956, 3 P BERK S MATH STAT, P81
   TSOKOS, 1969, MATH SYSTEMS THEORY, V3, P222
NR 2
TC 0
Z9 0
U1 0
U2 1
PU INST MATHEMATICAL STATISTICS
PI HAYWARD
PA IMS BUSINESS OFFICE-SUITE 7, 3401 INVESTMENT BLVD, HAYWARD, CA 94545
SN 0003-4851
J9 ANN MATH STAT
PY 1971
VL 42
IS 1
BP 418
EP &
PG 0
WC Mathematics; Statistics & Probability
SC Mathematics
GA J2589
UT WOS:A1971J258900057
ER

PT J
AU PADGETT, WJ
   TSOKOS, CP
AF PADGETT, WJ
   TSOKOS, CP
TI EXISTENCE OF A SOLUTION OF A STOCHASTIC INTEGRAL EQUATION IN TURBULENCE
   THEORY
SO ANNALS OF MATHEMATICAL STATISTICS
LA English
DT Meeting Abstract
CR LUMLEY JL, 1962, J MATH PHYS, V3, P309, DOI 10.1063/1.1703805
NR 1
TC 0
Z9 0
U1 0
U2 1
PU INST MATHEMATICAL STATISTICS
PI HAYWARD
PA IMS BUSINESS OFFICE-SUITE 7, 3401 INVESTMENT BLVD, HAYWARD, CA 94545
SN 0003-4851
J9 ANN MATH STAT
PY 1971
VL 42
IS 1
BP 418
EP &
PG 0
WC Mathematics; Statistics & Probability
SC Mathematics
GA J2589
UT WOS:A1971J258900056
ER

PT J
AU NATH, GB
AF NATH, GB
TI PROGRESSIVELY CENSORED BIVARIATE SAMPLES
SO ANNALS OF MATHEMATICAL STATISTICS
LA English
DT Meeting Abstract
NR 0
TC 0
Z9 0
U1 0
U2 0
PU INST MATHEMATICAL STATISTICS
PI HAYWARD
PA IMS BUSINESS OFFICE-SUITE 7, 3401 INVESTMENT BLVD, HAYWARD, CA 94545
SN 0003-4851
J9 ANN MATH STAT
PY 1971
VL 42
IS 1
BP 419
EP &
PG 0
WC Mathematics; Statistics & Probability
SC Mathematics
GA J2589
UT WOS:A1971J258900060
ER

PT J
AU PURI, PS
AF PURI, PS
TI METHOD FOR STUDYING INTEGRAL FUNCTIONALS OF STOCHASTIC PROCESSES WITH
   APPLICATIONS .1. MARKOV CHAIN CASE
SO ANNALS OF MATHEMATICAL STATISTICS
LA English
DT Meeting Abstract
NR 0
TC 0
Z9 0
U1 0
U2 0
PU INST MATHEMATICAL STATISTICS
PI HAYWARD
PA IMS BUSINESS OFFICE-SUITE 7, 3401 INVESTMENT BLVD, HAYWARD, CA 94545
SN 0003-4851
J9 ANN MATH STAT
PY 1971
VL 42
IS 1
BP 419
EP &
PG 0
WC Mathematics; Statistics & Probability
SC Mathematics
GA J2589
UT WOS:A1971J258900061
ER

PT J
AU PURI, PS
AF PURI, PS
TI METHOD FOR STUDYING INTEGRAL FUNCTIONALS OF STOCHASTIC PROCESSES WITH
   APPLICATIONS .2. SOJOURN TIME DISTRIBUTIONS FOR MARKOV CHAINS
SO ANNALS OF MATHEMATICAL STATISTICS
LA English
DT Meeting Abstract
NR 0
TC 0
Z9 0
U1 0
U2 0
PU INST MATHEMATICAL STATISTICS
PI HAYWARD
PA IMS BUSINESS OFFICE-SUITE 7, 3401 INVESTMENT BLVD, HAYWARD, CA 94545
SN 0003-4851
J9 ANN MATH STAT
PY 1971
VL 42
IS 1
BP 419
EP &
PG 0
WC Mathematics; Statistics & Probability
SC Mathematics
GA J2589
UT WOS:A1971J258900062
ER

PT J
AU MILLER, MF
AF MILLER, MF
TI SOME WEIGHTED SUMS OF MULTINOMIAL RANDOM VARIABLES
SO ANNALS OF MATHEMATICAL STATISTICS
LA English
DT Meeting Abstract
NR 0
TC 0
Z9 0
U1 0
U2 0
PU INST MATHEMATICAL STATISTICS
PI HAYWARD
PA IMS BUSINESS OFFICE-SUITE 7, 3401 INVESTMENT BLVD, HAYWARD, CA 94545
SN 0003-4851
J9 ANN MATH STAT
PY 1971
VL 42
IS 1
BP 420
EP &
PG 0
WC Mathematics; Statistics & Probability
SC Mathematics
GA J2589
UT WOS:A1971J258900064
ER

PT J
AU PURI, PS
AF PURI, PS
TI METHOD FOR STUDYING INTEGRAL FUNCTIONALS OF STOCHASTIC PROCESSES WITH
   APPLICATIONS .3.
SO ANNALS OF MATHEMATICAL STATISTICS
LA English
DT Meeting Abstract
NR 0
TC 0
Z9 0
U1 0
U2 0
PU INST MATHEMATICAL STATISTICS
PI HAYWARD
PA IMS BUSINESS OFFICE-SUITE 7, 3401 INVESTMENT BLVD, HAYWARD, CA 94545
SN 0003-4851
J9 ANN MATH STAT
PY 1971
VL 42
IS 1
BP 420
EP &
PG 0
WC Mathematics; Statistics & Probability
SC Mathematics
GA J2589
UT WOS:A1971J258900063
ER

PT J
AU RAO, BLSP
AF RAO, BLSP
TI SOME CHARACTERIZATION THEOREMS FOR WIENER PROCESS IN A HILBERT SPACE
SO ANNALS OF MATHEMATICAL STATISTICS
LA English
DT Meeting Abstract
CR VAKHANIYA, 1967, THEOR PROBABILITY AP, V12
NR 1
TC 0
Z9 0
U1 0
U2 0
PU INST MATHEMATICAL STATISTICS
PI HAYWARD
PA IMS BUSINESS OFFICE-SUITE 7, 3401 INVESTMENT BLVD, HAYWARD, CA 94545
SN 0003-4851
J9 ANN MATH STAT
PY 1971
VL 42
IS 1
BP 420
EP &
PG 0
WC Mathematics; Statistics & Probability
SC Mathematics
GA J2589
UT WOS:A1971J258900066
ER

PT J
AU RAO, BLSP
AF RAO, BLSP
TI CHARACTERIZATION OF PROBABILITY MEANS BY LINEAR FORMS
SO ANNALS OF MATHEMATICAL STATISTICS
LA English
DT Meeting Abstract
NR 0
TC 0
Z9 0
U1 0
U2 0
PU INST MATHEMATICAL STATISTICS
PI HAYWARD
PA IMS BUSINESS OFFICE-SUITE 7, 3401 INVESTMENT BLVD, HAYWARD, CA 94545
SN 0003-4851
J9 ANN MATH STAT
PY 1971
VL 42
IS 1
BP 420
EP &
PG 0
WC Mathematics; Statistics & Probability
SC Mathematics
GA J2589
UT WOS:A1971J258900065
ER

PT J
AU HAAN, LD
   HORDIJK, A
AF HAAN, LD
   HORDIJK, A
TI ITERATED LOGARITHM LAW FOR SEQUENCES OF MAXIMA
SO ANNALS OF MATHEMATICAL STATISTICS
LA English
DT Meeting Abstract
CR PICKANDS J, 1967, ANN MATH STAT, V38, P1570
NR 1
TC 0
Z9 0
U1 0
U2 0
PU INST MATHEMATICAL STATISTICS
PI HAYWARD
PA IMS BUSINESS OFFICE-SUITE 7, 3401 INVESTMENT BLVD, HAYWARD, CA 94545
SN 0003-4851
J9 ANN MATH STAT
PY 1971
VL 42
IS 1
BP 421
EP &
PG 0
WC Mathematics; Statistics & Probability
SC Mathematics
GA J2589
UT WOS:A1971J258900068
ER

PT J
AU RAO, BLSP
AF RAO, BLSP
TI LIMIT THEOREMS FOR RANDOM NUMBER OF RANDOM ELEMENTS ON COMPLETE
   SEPARABLE METRIC SPACES
SO ANNALS OF MATHEMATICAL STATISTICS
LA English
DT Meeting Abstract
NR 0
TC 0
Z9 0
U1 0
U2 0
PU INST MATHEMATICAL STATISTICS
PI HAYWARD
PA IMS BUSINESS OFFICE-SUITE 7, 3401 INVESTMENT BLVD, HAYWARD, CA 94545
SN 0003-4851
J9 ANN MATH STAT
PY 1971
VL 42
IS 1
BP 421
EP &
PG 0
WC Mathematics; Statistics & Probability
SC Mathematics
GA J2589
UT WOS:A1971J258900067
ER

PT J
AU LAMB, CW
AF LAMB, CW
TI CONSTRUCTION OF CERTAIN TRANSITION FUNCTIONS
SO ANNALS OF MATHEMATICAL STATISTICS
LA English
DT Article
CR CHUNG KL, 1966, ACTA MATH-UPPSALA, V115, P111, DOI 10.1007/BF02392205
   CHUNG KL, 1967, MARKOV CHAINS WITH S
   DOOB JL, 1945, T AM MATH SOC, V58, P455, DOI 10.2307/1990339
   DOOB JL, 1968, Z WAHRSCHEINLICHKEIT, V19, P236
   Kingman J. F. C., 1964, Z WAHRSCHEINLICHKEIT, V2, P180, DOI 10.1007/BF00533379
   NEVEU J, 1961, ANN I PONICARE, V17, P323
   NEVEU J, 1962, P AARH C COMB PROB, P64
   NEVEU J, 1961, 4TH P BERK S MATH ST, V2, P347
   Reuter G. E. H., 1959, J LOND MATH SOC, V34, P81
   WILLIAMS D, 1969, Z WAHRSCHEINLICHKEIT, V11, P288, DOI 10.1007/BF00531652
NR 10
TC 4
Z9 4
U1 0
U2 0
PU INST MATHEMATICAL STATISTICS
PI HAYWARD
PA IMS BUSINESS OFFICE-SUITE 7, 3401 INVESTMENT BLVD, HAYWARD, CA 94545
SN 0003-4851
J9 ANN MATH STAT
PY 1971
VL 42
IS 2
BP 439
EP &
DI 10.1214/aoms/1177693396
PG 0
WC Mathematics; Statistics & Probability
SC Mathematics
GA J4063
UT WOS:A1971J406300001
ER

PT J
AU SCHACH, S
AF SCHACH, S
TI WEAK CONVERGENCE RESULTS FOR A CLASS OF MULTIVARIATE MARKOV PROCESSES
SO ANNALS OF MATHEMATICAL STATISTICS
LA English
DT Article
CR ANDERSON TW, 1962, INTRODUCTION MULTIVA
   BILLINGSLEY P, 1968, CONVERGENCE PROBABIL
   Breiman L., 1968, PROBABILITY
   DUNFOR N, 1964, LINEAR OPERATORS   1
   IGLEHART DL, 1968, ANN MATH STAT, V39, P864, DOI 10.1214/aoms/1177698318
   Kac M., 1947, AM MATHEM MONTHLY, V54, P369, DOI DOI 10.2307/2304386
   Karlin S, 1965, J APPL PROBAB, V2, P352, DOI 10.2307/3212199
   LEDERMANN W, 1954, PHILOS TR R SOC S-A, V246, P321, DOI 10.1098/rsta.1954.0001
   SCHACH S, 1969, 126 JOHNS HOPK U DEP
   Skorohod A. V., 1956, THEOR PROBAB APPL, V1, P261, DOI DOI 10.1137/1101022
   Sneddon I. N., 1957, ELEMENTS PARTIAL DIF
NR 11
TC 20
Z9 20
U1 0
U2 2
PU INST MATHEMATICAL STATISTICS
PI CLEVELAND
PA 3163 SOMERSET DR, CLEVELAND, OH 44122 USA
SN 0003-4851
J9 ANN MATH STAT
JI Ann. Math. Stat.
PY 1971
VL 42
IS 2
BP 451
EP +
DI 10.1214/aoms/1177693397
PG 1
WC Mathematics; Statistics & Probability
SC Mathematics
GA J4063
UT WOS:A1971J406300002
ER

PT J
AU KOUL, HL
AF KOUL, HL
TI ASYMPTOTIC BEHAVIOR OF A CLASS OF CONFICENCE REGIONS BASED ON RANKS IN
   REGRESSION
SO ANNALS OF MATHEMATICAL STATISTICS
LA English
DT Article
CR ADICHIE JN, 1967, ANN MATH STAT, V38, P894, DOI 10.1214/aoms/1177698883
   Hajek J, 1967, THEORY RANK TESTS
   JURECKOV.J, 1969, ANN MATH STAT, V40, P1889, DOI 10.1214/aoms/1177697273
   KOUL HL, 1969, ANN MATH STAT, V40, P1950, DOI 10.1214/aoms/1177697278
   LEHMANN EL, 1963, ANN MATH STAT, V34, P1507, DOI 10.1214/aoms/1177703882
   SCHEFFE H, 1959, ANALYSIS VARIANCE
   SEN PK, 1966, ANN MATH STAT, V37, P1759, DOI 10.1214/aoms/1177699164
NR 7
TC 16
Z9 16
U1 0
U2 0
PU INST MATHEMATICAL STATISTICS
PI HAYWARD
PA IMS BUSINESS OFFICE-SUITE 7, 3401 INVESTMENT BLVD, HAYWARD, CA 94545
SN 0003-4851
J9 ANN MATH STAT
PY 1971
VL 42
IS 2
BP 466
EP &
DI 10.1214/aoms/1177693398
PG 0
WC Mathematics; Statistics & Probability
SC Mathematics
GA J4063
UT WOS:A1971J406300003
ER

PT J
AU DENARDO, EV
AF DENARDO, EV
TI MARKOV RENEWAL PROGRAMS WITH SMALL INTEREST RATES
SO ANNALS OF MATHEMATICAL STATISTICS
LA English
DT Article
CR Barlow R.E, 1965, MATHEMATICAL THEORY
   BLACKWELL D, 1962, ANN MATH STAT, V33, P719, DOI 10.1214/aoms/1177704593
   BROWN BW, 1965, ANN MATH STAT, V36, P1279, DOI 10.1214/aoms/1177699999
   CHITGOPE.SS, 1969, SIAM J CONTROL, V7, P367, DOI 10.1137/0307027
   Chung KL, 1968, COURSE PROBABILITY T
   Cinlar E., 1969, ADV APPL PROBAB, V1, P123, DOI DOI 10.2307/1426216
   DECANI JS, 1964, MANAGE SCI, V10, P716, DOI 10.1287/mnsc.10.4.716
   DENARDO EV, 1970, MANAGE SCI, V16, P281, DOI 10.1287/mnsc.16.5.281
   DENARDO EV, 1967, SIAM REV, V9, P165, DOI 10.1137/1009030
   DENARDO EV, 1968, SIAM J APPL MATH, V16, P468, DOI 10.1137/0116038
   DENARDO EV, 1970, OPER RES, V18, P279, DOI 10.1287/opre.18.2.279
   DENARDO EV, 1968, ANN MATH STAT, V39, P1220, DOI 10.1214/aoms/1177698247
   DENARDO EV, 1968, MANAGE SCI, V14, P451, DOI 10.1287/mnsc.14.7.451
   DERMAN C, 1964, ANN MATH STAT, V35, P341, DOI 10.1214/aoms/1177703757
   DOETSCH G, 1961, GUIDE APPLICATION LA
   Doob J. L., 1953, STOCHASTIC PROCESSES
   FELLER W, 1966, INTRODUCTION PROBABI, V2
   FOX B, 1968, RM5803PR RAND CORP
   FOX B, 1968, MANAGE SCI, V15, P210, DOI 10.1287/mnsc.15.3.210
   HILLE E, 1959, ANALYTIC FUNCTION TH, V1
   Howard R. A., 1960, DYNAMIC PROGRAMMING
   HOWARD RA, 1963, P INT STATIST I OTTA
   Hunter J.J., 1969, ADV APPL PROBAB, V1, P188, DOI 10.2307/1426217
   JEWELL WS, 1963, OPER RES, V11, P938, DOI 10.1287/opre.11.6.938
   JEWELL WS, 1964, ORC6416 U CAL OP RES
   Kato T, 1966, PERTURBATION THEORY
   Kemeny J., 1961, FINITE MARKOV CHAINS
   KEMENY JG, 1960, THEOR PROBABILITY AP, V6, P101
   KSHIRSAGAR AM, 1967, BIOMETRIKA, V54, P597, DOI 10.2307/2335050
   MILLER BL, 1969, ANN MATH STAT, V40, P366, DOI 10.1214/aoms/1177697700
   MILLER BL, 1968, J MATH ANAL APPL, V22, P552, DOI 10.1016/0022-247X(68)90194-7
   PYKE R, 1961, ANN MATH STAT, V32, P1231, DOI 10.1214/aoms/1177704863
   RYKOV VV, 1966, THEOR PROBAB APPL+, V11, P302, DOI 10.1137/1111027
   SCHWEITZER P, 1963, PRIVATE COMMUNICATIO
   SCHWEITZER PJ, 1965, THESIS MASSACHUSETTS
   SHAPLEY LS, 1963, P NAT ACAD SCI US, V39, P1095
   VEINOTT AF, 1966, ANN MATH STAT, V37, P1284, DOI 10.1214/aoms/1177699272
   VEINOTT AF, 1969, ANN MATH STAT, V40, P1635, DOI 10.1214/aoms/1177697379
   VEINOTT AF, 1969, 36 OP RES SOC AM NAT
   Widder D.V., 1946, LAPLACE TRANSFORM
   ZACHRISSON LE, 1964, ADVANCES GAME THEORY
NR 41
TC 30
Z9 30
U1 0
U2 1
PU INST MATHEMATICAL STATISTICS
PI HAYWARD
PA IMS BUSINESS OFFICE-SUITE 7, 3401 INVESTMENT BLVD, HAYWARD, CA 94545
SN 0003-4851
J9 ANN MATH STAT
PY 1971
VL 42
IS 2
BP 477
EP &
DI 10.1214/aoms/1177693399
PG 0
WC Mathematics; Statistics & Probability
SC Mathematics
GA J4063
UT WOS:A1971J406300004
ER

PT J
AU HOLM, S
AF HOLM, S
TI NONPARAMETRIC ASYMPTOTICALLY MINIMAX TESTS
SO ANNALS OF MATHEMATICAL STATISTICS
LA English
DT Article
CR BELL CB, 1966, ANN MATH STAT, V37, P133, DOI 10.1214/aoms/1177699604
   BIRNBAUM ZW, 1957, ANN MATH STAT, V28, P933, DOI 10.1214/aoms/1177706794
   CHAPMAN DG, 1958, ANN MATH STAT, V29, P655, DOI 10.1214/aoms/1177706529
   CHERNOFF H, 1958, ANN MATH STAT, V29, P972, DOI 10.1214/aoms/1177706436
   DOKSUM K, 1966, ANN MATH STAT, V37, P619, DOI 10.1214/aoms/1177699455
   DOKSUM K, 1969, ANN MATH STAT, V40, P1778, DOI 10.1214/aoms/1177697390
   DOKSUM K, 1967, ANN MATH STAT, V38, P1731, DOI 10.1214/aoms/1177698607
   GOVINDRAJULU Z, 1965, 5 P BERK S MATH STAT, P609
   HOEFFDING W, 1951, 2 P BERK S MATH STAT, P83
   HOGG RV, 1965, INTRODUCTION MATHEMA
   RUIST E, 1954, ARK MATEMATIK, V3, P133
NR 11
TC 1
Z9 1
U1 0
U2 0
PU INST MATHEMATICAL STATISTICS
PI HAYWARD
PA IMS BUSINESS OFFICE-SUITE 7, 3401 INVESTMENT BLVD, HAYWARD, CA 94545
SN 0003-4851
J9 ANN MATH STAT
PY 1971
VL 42
IS 2
BP 497
EP &
DI 10.1214/aoms/1177693400
PG 0
WC Mathematics; Statistics & Probability
SC Mathematics
GA J4063
UT WOS:A1971J406300005
ER

PT J
AU HEDAYAT, A
   FEDERER, WT
AF HEDAYAT, A
   FEDERER, WT
TI EMBEDDING AND ENUMERATION OF ORTHOGONAL LATIN SQUARES
SO ANNALS OF MATHEMATICAL STATISTICS
LA English
DT Article
CR BROWN JW, 1968, J COMB THEORY, V5, P177, DOI 10.1016/S0021-9800(68)80053-5
   BRUCK RH, 1963, PAC J MATH, V13, P421
   Fisher RA, 1934, P CAMB PHILOS SOC, V30, P492
   Hall Jr M., 1956, MATH TABLES AIDS COM, V10, P186, DOI 10.2307/2001913
   Hall Jr M., 1967, COMBINATORIAL THEORY
   HEDAYAT A, 1969, BIOMETRIKA, V56, P547
   HEDAYAT A, 1970, EXPERIMENTAL DESIGNS
   Mann HB, 1942, ANN MATH STAT, V13, P418, DOI 10.1214/aoms/1177731539
   Mann H., 1944, B AM MATH SOC, V50, P249, DOI 10.1090/S0002-9904-1944-08127-5
   NORTON HW, 1939, ANN EUGENICS, V2, P269
   PARKER ET, 1962, P AM MATH SOC, V13, P219, DOI 10.2307/2034470
   RYSER HJ, 1963, COMBINATORIAL MATHEM
   SADE A, 1951, ANN MATH STAT, V22, P306, DOI 10.1214/aoms/1177729654
   SAXENA P. N., 1950, JOUR INDIAN SOC AGRIC STATISTICS, V2, P161
   Shrikhande S. S., 1961, SANKHYA A, V23, P115
   Tarry G., 1901, C R ASS FRAN AV SCI, V2, P170
   Tarry G., 1900, C R ASS FRAN AV SCI, V1, P122
   Wells M. B., 1967, J COMB THEORY, V3, P98, DOI 10.1016/S0021-9800(67)80021-8
NR 18
TC 0
Z9 0
U1 0
U2 0
PU INST MATHEMATICAL STATISTICS
PI HAYWARD
PA IMS BUSINESS OFFICE-SUITE 7, 3401 INVESTMENT BLVD, HAYWARD, CA 94545
SN 0003-4851
J9 ANN MATH STAT
PY 1971
VL 42
IS 2
BP 509
EP &
DI 10.1214/aoms/1177693401
PG 0
WC Mathematics; Statistics & Probability
SC Mathematics
GA J4063
UT WOS:A1971J406300006
ER

PT J
AU PILLAI, KCS
   JOURIS, GM
AF PILLAI, KCS
   JOURIS, GM
TI SOME DISTRIBUTION PROBLEMS IN MULTIVARIATE COMPLES GAUSSIAN CASE
SO ANNALS OF MATHEMATICAL STATISTICS
LA English
DT Article
CR ALANI S, 1968, 162 PURD U DEP STAT
   CONSUL PC, 1967, ANN MATH STAT, V38, P1160, DOI 10.1214/aoms/1177698785
   CONSUL PC, 1967, ANN MATH STAT, V38, P1170, DOI 10.1214/aoms/1177698786
   CONSUL PC, 1966, ZCAD ROY BELG B    S, V52, P547
   GOODMAN NR, 1963, ANN MATH STAT, V34, P152, DOI 10.1214/aoms/1177704250
   JAMES AT, 1964, ANN MATH STAT, V35, P475, DOI 10.1214/aoms/1177703550
   JOURIS GM, 1968, 164 PURD U DEP STAT
   KHATRI CG, 1965, ANN MATH STAT, V36, P115, DOI 10.1214/aoms/1177700275
   KHATRI CG, 1969, ANN I STAT MATH, V21, P23, DOI 10.1007/BF02532229
   KHATRI CG, 1965, ANN MATH STAT, V36, P1511, DOI 10.1214/aoms/1177699910
   KHATRI CG, 1965, ANN MATH STAT, V36, P98, DOI 10.1214/aoms/1177700274
   KHATRI CG, 1968, 161 PURD U DEP STAT
   Meijer C. S., 1946, NEDERL AKAD WETENSCH, V49, P632
   Meijer C. S., 1946, NEDERL AKAD WETENS B, V49, P344
   MEIJER CS, 1946, NEDERL AKAD WETENSCH, V49, P475
   MEIJER C. S., 1946, INDAG MATH, V8, P124
   PILLAI KCS, 1969, ANN MATH STAT, V40, P2033, DOI 10.1214/aoms/1177697283
   PILLAI KCS, 1967, BIOMETRIKA, V54, P195, DOI 10.2307/2333863
   WOODING RA, 1956, BIOMETRIKA, V43, P212
NR 19
TC 12
Z9 12
U1 0
U2 0
PU INST MATHEMATICAL STATISTICS
PI HAYWARD
PA IMS BUSINESS OFFICE-SUITE 7, 3401 INVESTMENT BLVD, HAYWARD, CA 94545
SN 0003-4851
J9 ANN MATH STAT
PY 1971
VL 42
IS 2
BP 517
EP &
DI 10.1214/aoms/1177693402
PG 0
WC Mathematics; Statistics & Probability
SC Mathematics
GA J4063
UT WOS:A1971J406300007
ER

PT J
AU LEE, YS
AF LEE, YS
TI DISTRIBUTION OF CANONICAL CORRELATIONS AND ASYMPTOTIC EXPANSIONS FOR
   DISTRIBUTIONS OF CERTAIN INDEPENDENCE TEST STATISTICS
SO ANNALS OF MATHEMATICAL STATISTICS
LA English
DT Article
CR CONSTANTINE AG, 1963, ANN MATH STAT, V34, P1270, DOI 10.1214/aoms/1177703863
   Elfving G, 1947, SKAND AKTUARIETIDSKR, V30, P56
   FRASER DAS, 1963, B INT STATIST INST, V40, P842
   Fraser D.A.S., 1968, STRUCTURE INFERENCE
   HODGSON V, 1968, ANN MATH STAT, V39, P307
   Hsu PL, 1940, BIOMETRIKA, V31, P221, DOI 10.2307/2332605
   ITO K, 1960, ANN MATH STAT, V31, P1148, DOI 10.1214/aoms/1177705685
   JAMES AT, 1964, ANN MATH STAT, V35, P475, DOI 10.1214/aoms/1177703550
   JAMES AT, 1954, ANN MATH STAT, V25, P40, DOI 10.1214/aoms/1177728846
   LEE US, 1969, ASYMPTOTIC FORMULAE
   PILLAI KCS, 1955, ANN MATH STAT, V26, P117, DOI 10.1214/aoms/1177728599
   PILLAI KCS, 1967, BIOMETRIKA, V54, P195, DOI 10.2307/2333863
   ROY J, 1960, SANKHYA, V22, P289
   RUBEN H, 1966, J ROY STAT SOC B, V28, P513
   SIOTANI M, 1968, 595 U N CAR DEP STAT
   SUGIURA N, 1969, ANN MATH STAT, V40, P942, DOI 10.1214/aoms/1177697599
   SUGIURA N, 1969, 609 U N CAR DEP STAT
   Wilks SS, 1935, ECONOMETRICA, V3, P309, DOI 10.2307/1905324
NR 18
TC 19
Z9 19
U1 0
U2 0
PU INST MATHEMATICAL STATISTICS
PI HAYWARD
PA IMS BUSINESS OFFICE-SUITE 7, 3401 INVESTMENT BLVD, HAYWARD, CA 94545
SN 0003-4851
J9 ANN MATH STAT
PY 1971
VL 42
IS 2
BP 526
EP &
DI 10.1214/aoms/1177693403
PG 0
WC Mathematics; Statistics & Probability
SC Mathematics
GA J4063
UT WOS:A1971J406300008
ER

PT J
AU NADLER, J
   ROBBINS, NB
AF NADLER, J
   ROBBINS, NB
TI SOME CHARACTERISTICS OF PAGES 2-SIDED PROCEDURE FOR DETECTING A CHANGE
   IN A LOCATION PARAMETER
SO ANNALS OF MATHEMATICAL STATISTICS
LA English
DT Article
CR ANDERSON TW, 1960, ANN MATH STAT, V31, P165, DOI 10.1214/aoms/1177705996
   ANIS AA, 1954, P MATH PHYS SOC UAR, V5, P83
   BARNARD GA, 1959, J ROY STAT SOC B, V21, P239
   CHERNOFF H, 1964, ANN MATH STAT, V35, P999, DOI 10.1214/aoms/1177700517
   DARLING DA, 1953, ANN MATH STAT, V24, P624, DOI 10.1214/aoms/1177728918
   DONSKER MD, 1951, 6 AM MATH SOC MEM
   DOOB JL, 1949, ANN MATH STAT, V20, P393, DOI 10.1214/aoms/1177729991
   EWAN WD, 1963, TECHNOMETRICS, V5, P1, DOI 10.2307/1266488
   EWAN WD, 1960, BIOMETRIKA, V47, P363, DOI 10.2307/2333307
   FELLER W, 1951, ANN MATH STAT, V22, P427, DOI 10.1214/aoms/1177729589
   FELLER W, 1966, INTRODUCTION PROBABI, V2
   FREEDMAN DA, 1967, ANN MATH STAT, V38, P1, DOI 10.1214/aoms/1177699053
   Freund R. A., 1962, IND QUALITY CONTROL, V18, P15
   GOLDSMITH RL, 1961, TECHNOMETRICS, V3, P11
   JOHNSON NL, 1961, J AM STAT ASSOC, V56, P835, DOI 10.2307/2281998
   PAGE ES, 1961, TECHNOMETRICS, V3, P1, DOI 10.2307/1266472
   PAGE ES, 1955, BIOMETRIKA, V42, P523, DOI 10.2307/2333401
   PAGE ES, 1954, BIOMETRIKA, V41, P100, DOI 10.1093/biomet/41.1-2.100
   SHEPP LA, 1966, ANN MATH STAT, V37, P321, DOI 10.1214/aoms/1177699516
   TRAUX HM, 1961, IND QUAL CONTOL, V18, P18
NR 20
TC 14
Z9 14
U1 1
U2 1
PU INST MATHEMATICAL STATISTICS
PI HAYWARD
PA IMS BUSINESS OFFICE-SUITE 7, 3401 INVESTMENT BLVD, HAYWARD, CA 94545
SN 0003-4851
J9 ANN MATH STAT
PY 1971
VL 42
IS 2
BP 538
EP &
DI 10.1214/aoms/1177693404
PG 0
WC Mathematics; Statistics & Probability
SC Mathematics
GA J4063
UT WOS:A1971J406300009
ER

PT J
AU BOYLAN, ES
AF BOYLAN, ES
TI EQUICONVERGENCE OF MARTINGALES
SO ANNALS OF MATHEMATICAL STATISTICS
LA English
DT Article
CR HALMOS P, 1950, MEASURE THOERY
   NEVEAU J, 1965, MATHEMATICAL FOUNDAT
NR 2
TC 43
Z9 43
U1 0
U2 0
PU INST MATHEMATICAL STATISTICS
PI HAYWARD
PA IMS BUSINESS OFFICE-SUITE 7, 3401 INVESTMENT BLVD, HAYWARD, CA 94545
SN 0003-4851
J9 ANN MATH STAT
PY 1971
VL 42
IS 2
BP 552
EP &
DI 10.1214/aoms/1177693405
PG 0
WC Mathematics; Statistics & Probability
SC Mathematics
GA J4063
UT WOS:A1971J406300010
ER

PT J
AU SIOTANI, M
AF SIOTANI, M
TI ASYMPTOTIC EXPANSION OF NON-NULL DISTRIBUTION OF HOTELLINGS GENERALIZED
   TO2-STATISTIC
SO ANNALS OF MATHEMATICAL STATISTICS
LA English
DT Article
CR ANDERSON TW, 1958, INTRODUCTION MULTIVA
   CONSTANT.AG, 1966, ANN MATH STAT, V37, P215, DOI 10.1214/aoms/1177699611
   DAVIS AW, 1968, ANN MATH STAT, V39, P815, DOI 10.1214/aoms/1177698313
   Hotelling H.A., 1951, 2ND P BERK S MATH ST, P23
   HOTELLING H, 1947, SELECTED TECHNIQUES, pCH3
   ITO K, 1962, BIOMETRIKA, V49, P455, DOI 10.2307/2333979
   ITO K, 1960, ANN MATH STAT, V31, P1148, DOI 10.1214/aoms/1177705685
   ITO K, 1965, ANN MATH STAT, V27, P1091
   JAMES GS, 1954, BIOMETRIKA, V41, P19, DOI 10.2307/2333003
   KHATRI CG, 1968, ANN MATH STAT, V39, P1274, DOI 10.1214/aoms/1177698252
   PILLAI KCS, 1967, BIOMETRIKA, V54, P195, DOI 10.2307/2333863
   PILLAI KCS, 1959, BIOMETRIKA, V46, P160, DOI 10.2307/2332818
   SIOTANI M, 1956, ANN I STAT MATH, V8, P1, DOI 10.1007/BF02863561
   SIOTANI M, 1968, 595 U N CAR I STAT M
   SIOTANI M, 1957, ANN I STAT MATH, V9, P157, DOI 10.1007/BF02892503
   SIOTANI M, 1956, P I STATIST MATH, V4, P23
   WELCH BL, 1947, BIOMETRIKA, V34, P28, DOI 10.2307/2332510
NR 17
TC 18
Z9 18
U1 0
U2 0
PU INST MATHEMATICAL STATISTICS
PI HAYWARD
PA IMS BUSINESS OFFICE-SUITE 7, 3401 INVESTMENT BLVD, HAYWARD, CA 94545
SN 0003-4851
J9 ANN MATH STAT
PY 1971
VL 42
IS 2
BP 560
EP &
DI 10.1214/aoms/1177693406
PG 0
WC Mathematics; Statistics & Probability
SC Mathematics
GA J4063
UT WOS:A1971J406300011
ER

PT J
AU FISHBURN, PC
AF FISHBURN, PC
TI ONE-WAY EXPECTED UTILITY WITH FINITE CONSEQUENCE SPACES
SO ANNALS OF MATHEMATICAL STATISTICS
LA English
DT Article
CR Allais M, 1953, ECONOMETRICA, V21, P503, DOI 10.2307/1907921
   AUMANN RJ, 1964, ECONOMETRICA, V32, P210, DOI 10.2307/1913746
   AUMANN RJ, 1962, ECONOMETRICA, V30, P445, DOI 10.2307/1909888
   Fishburn Peter C, 1970, UTILITY THEORY DECIS
   KANNAI Y, 1963, ISRAEL J MATH, V1, P229, DOI 10.1007/BF02759725
   Kelley JL, 1963, LINEAR TOPOLOGICAL S
   SAVAGE LJ, 1954, FOUNDATIONS STATISTI
   VONNEUMANN J, 1947, THEORY GAMES ECONOMO
NR 8
TC 18
Z9 18
U1 0
U2 0
PU INST MATHEMATICAL STATISTICS
PI HAYWARD
PA IMS BUSINESS OFFICE-SUITE 7, 3401 INVESTMENT BLVD, HAYWARD, CA 94545
SN 0003-4851
J9 ANN MATH STAT
PY 1971
VL 42
IS 2
BP 572
EP &
DI 10.1214/aoms/1177693407
PG 0
WC Mathematics; Statistics & Probability
SC Mathematics
GA J4063
UT WOS:A1971J406300012
ER

PT J
AU DEGROOT, MH
   FEDER, PI
   GOEL, PK
AF DEGROOT, MH
   FEDER, PI
   GOEL, PK
TI MATCHMAKING
SO ANNALS OF MATHEMATICAL STATISTICS
LA English
DT Article
CR DUBOIS NSD, 1969, J AM STAT ASSOC, V64, P163
   FELLER W, 1968, INTRODUCTION PROBABI, V1
   Hardy G. H., 1967, INEQUALITIES
   Hodges Jr J. L., 1964, BASIC CONCEPTS PROBA
NR 4
TC 17
Z9 17
U1 0
U2 1
PU INST MATHEMATICAL STATISTICS
PI HAYWARD
PA IMS BUSINESS OFFICE-SUITE 7, 3401 INVESTMENT BLVD, HAYWARD, CA 94545
SN 0003-4851
J9 ANN MATH STAT
PY 1971
VL 42
IS 2
BP 578
EP &
DI 10.1214/aoms/1177693408
PG 0
WC Mathematics; Statistics & Probability
SC Mathematics
GA J4063
UT WOS:A1971J406300013
ER

PT J
AU KULLBACK, S
AF KULLBACK, S
TI MARGINAL HOMOGENEITY OF MULTIDIMENSIONAL CONTINGENCY TABLES
SO ANNALS OF MATHEMATICAL STATISTICS
LA English
DT Article
CR BHAPKAR VP, 1966, J AM STAT ASSOC, V61, P228, DOI 10.2307/2283057
   BOWKER AH, 1948, J AM STAT ASSOC, V43, P572, DOI 10.2307/2280710
   Caussinus H., 1965, ANN FAC SCI U TOULOU, V29, P77, DOI DOI 10.5802/AFST.519
   GOOD IJ, 1963, ANN MATH STAT, V34, P911, DOI 10.1214/aoms/1177704014
   IRELAND CT, 1968, BIOMETRIKA, V55, P179
   IRELAND CT, 1968, BIOMETRICS, V24, P707, DOI 10.2307/2528330
   IRELAND CT, 1969, J AM STAT ASSOC, V64, P1323, DOI 10.2307/2286071
   KU HH, 1968, J RES NBS B MATH SCI, VB 72, P159, DOI 10.6028/jres.072B.019
   LEVINE J, 1967, THESIS HARVARD U
   LEVINE JH, UNPUBLISHED MANUSCRI
   MOSTELLE.F, 1968, J AM STAT ASSOC, V63, P1, DOI 10.2307/2283825
   Neyman J., 1949, 1ST P BERK S MATH ST, P239
   STUART A, 1955, BIOMETRIKA, V42, P412, DOI 10.2307/2333387
   Wald A, 1943, T AM MATH SOC, V54, P426, DOI 10.2307/1990256
NR 14
TC 28
Z9 28
U1 0
U2 0
PU INST MATHEMATICAL STATISTICS
PI HAYWARD
PA IMS BUSINESS OFFICE-SUITE 7, 3401 INVESTMENT BLVD, HAYWARD, CA 94545
SN 0003-4851
J9 ANN MATH STAT
PY 1971
VL 42
IS 2
BP 594
EP &
DI 10.1214/aoms/1177693409
PG 0
WC Mathematics; Statistics & Probability
SC Mathematics
GA J4063
UT WOS:A1971J406300014
ER

PT J
AU FINKELSTEIN, H
AF FINKELSTEIN, H
TI LAW OF ITERATED LOGARITHM FOR EMPIRICAL DISTRIBUTIONS
SO ANNALS OF MATHEMATICAL STATISTICS
LA English
DT Article
CR CHUNG KL, 1949, T AM MATH SOC, V67, P36
   RIESZ F, 1955, FUNCTIONAL ANALYSIS
   Smirnov N. V., 1939, MAT SBORNIK, V6, P3
   Strassen V., 1964, Z WAHRSCHEINLICHKEIT, V3, P211, DOI 10.1007/BF00534910
NR 4
TC 76
Z9 76
U1 0
U2 0
PU INST MATHEMATICAL STATISTICS
PI CLEVELAND
PA 3163 SOMERSET DR, CLEVELAND, OH 44122 USA
SN 0003-4851
J9 ANN MATH STAT
JI Ann. Math. Stat.
PY 1971
VL 42
IS 2
BP 607
EP +
DI 10.1214/aoms/1177693410
PG 1
WC Mathematics; Statistics & Probability
SC Mathematics
GA J4063
UT WOS:A1971J406300015
ER

PT J
AU CLEVELAND, WS
AF CLEVELAND, WS
TI PROJECTION WITH WRONG INNER PRODUCT AND ITS APPLICATION TO REGRESSON
   WITH CORRELATED ERRORS AND LINEAR FILTERING OF TIME SERIES
SO ANNALS OF MATHEMATICAL STATISTICS
LA English
DT Article
CR HALMOS PR, 1957, HILBERT SPACE
   HELMBERG G, 1969, SPECTRAL THEORY HILB
   Kantorovich L. V. ., 1948, USP MAT NAUK, V3, P89
   KOLMOGOROV AN, 1941, IZV AKAD NAUK SSSR M, V9, P3
   KRUSKAL W, 1968, ANN MATH STAT, V39, P70, DOI 10.1214/aoms/1177698505
   MOND B, 1966, PAC J MATH, V18, P161
   RAO CR, 1965, LINEAR STATISTICAL R
   WATSON GS, 1967, ANN MATH STAT, V38, P1679, DOI 10.1214/aoms/1177698603
   Weiner N, 1949, EXTRAPOLATION INTERP
   WHITTLE P, 1953, J ROY STAT SOC B, V15, P125
NR 10
TC 12
Z9 12
U1 0
U2 0
PU INST MATHEMATICAL STATISTICS
PI CLEVELAND
PA 3163 SOMERSET DR, CLEVELAND, OH 44122 USA
SN 0003-4851
J9 ANN MATH STAT
JI Ann. Math. Stat.
PY 1971
VL 42
IS 2
BP 616
EP +
DI 10.1214/aoms/1177693411
PG 1
WC Mathematics; Statistics & Probability
SC Mathematics
GA J4063
UT WOS:A1971J406300016
ER

PT J
AU BAUM, LE
   KATZ, M
   STRATTON, HH
AF BAUM, LE
   KATZ, M
   STRATTON, HH
TI STRONG LAWS FOR RULED SUMS
SO ANNALS OF MATHEMATICAL STATISTICS
LA English
DT Article
CR BAUM LE, 1965, T AM MATH SOC, V120, P108, DOI 10.2307/1994170
   Esseen G, 1945, ACTA MATH, V77, P1
   HEYDE CC, 1969, P AM MATH SOC, V23, P85
   HEYDE CC, 1969, Z WAHRSCHEINLICHKEIT, V11, P181, DOI 10.1007/BF00536379
   PINSKY M, 1969, P AM MATH SOC, V22, P288, DOI 10.2307/2036972
NR 5
TC 15
Z9 15
U1 0
U2 0
PU INST MATHEMATICAL STATISTICS
PI HAYWARD
PA IMS BUSINESS OFFICE-SUITE 7, 3401 INVESTMENT BLVD, HAYWARD, CA 94545
SN 0003-4851
J9 ANN MATH STAT
PY 1971
VL 42
IS 2
BP 625
EP &
DI 10.1214/aoms/1177693412
PG 0
WC Mathematics; Statistics & Probability
SC Mathematics
GA J4063
UT WOS:A1971J406300017
ER

PT J
AU HOEL, DG
AF HOEL, DG
TI METHOD FOR CONSTRUCTION OF SEQUENTIAL SELECTION PROCEDURES
SO ANNALS OF MATHEMATICAL STATISTICS
LA English
DT Article
CR ANDERSON TW, 1960, ANN MATH STAT, V31, P165, DOI 10.1214/aoms/1177705996
   BECHHOFER RE, 1954, ANN MATH STAT, V25, P273, DOI 10.1214/aoms/1177728785
   BECHHOFER RE, 1956, ANN MATH STAT, V27, P219
   BECHHOFER RE, 1968, SEQUENTIAL RANKING I
   BRADLEY RA, 1966, TECHNOMETRICS, V8, P615, DOI 10.2307/1266634
   BRADLEY RA, 1965, 5 P BERK S MATH STAT, V1, P593
   GHOSH JK, 1960, CALCUTTA STATIST ASS, V2, P139
   HALL WJ, 1965, ANN MATH STAT, V36, P575, DOI 10.1214/aoms/1177700169
   HOEL DG, 1970, ANN MATH STAT, V41, P310, DOI 10.1214/aoms/1177697210
   HOEL DG, 1968, ANN MATH STAT, V39, P2067, DOI 10.1214/aoms/1177698034
   LEHMANN EL, 1953, ANN MATH STAT, V24, P23, DOI 10.1214/aoms/1177729080
   PARENT EA, 1965, 80 STANF U DEP STAT
   PAULSON E, 1964, ANN MATH STAT, V35, P1048, DOI 10.1214/aoms/1177703263
   PAULSON E, 1964, ANN MATH STAT, V35, P174, DOI 10.1214/aoms/1177703739
   SAVAGE IR, 1966, ANN MATH STAT, V37, P1154, DOI 10.1214/aoms/1177699261
   WALD A, 1947, SEQUENTIAL ANALYSIS
   WILCOXON F, 1963, BIOMETRICS, V19, P58, DOI 10.2307/2527572
NR 17
TC 4
Z9 4
U1 1
U2 1
PU INST MATHEMATICAL STATISTICS
PI HAYWARD
PA IMS BUSINESS OFFICE-SUITE 7, 3401 INVESTMENT BLVD, HAYWARD, CA 94545
SN 0003-4851
J9 ANN MATH STAT
PY 1971
VL 42
IS 2
BP 630
EP &
DI 10.1214/aoms/1177693413
PG 0
WC Mathematics; Statistics & Probability
SC Mathematics
GA J4063
UT WOS:A1971J406300018
ER

PT J
AU MURTY, VN
AF MURTY, VN
TI OPTIMAL DESIGNS WITH A TCHEBYCHEFFIAN SPLINE REGRESSION FUNCTION
SO ANNALS OF MATHEMATICAL STATISTICS
LA English
DT Article
CR KARLIN S, 1967, J ANAL MATH, V20, P233, DOI 10.1007/BF02786674
   Karlin S., 1966, TCHEBYCHEFF SYSTEMS
   Karlin S., 1968, TOTAL POSITIVITY, VI
   Meinardus G., 1967, APPROXIMATION FUNCTI
   MURTY VN, 1969, 191 PURD U DEP STAT
   SCHUMAKER LL, 1967, 810 MATH RES CTR SUM
   SCHUMAKER LL, 1967, 768 MATH RES CTR SUM
   STUDDEN WJ, 1968, ANN MATH STAT, V39, P1435
   STUDDEN WJ, 1968, ANN MATH STAT, V40, P1557
NR 9
TC 8
Z9 8
U1 0
U2 0
PU INST MATHEMATICAL STATISTICS
PI HAYWARD
PA IMS BUSINESS OFFICE-SUITE 7, 3401 INVESTMENT BLVD, HAYWARD, CA 94545
SN 0003-4851
J9 ANN MATH STAT
PY 1971
VL 42
IS 2
BP 643
EP &
DI 10.1214/aoms/1177693414
PG 0
WC Mathematics; Statistics & Probability
SC Mathematics
GA J4063
UT WOS:A1971J406300019
ER

PT J
AU GHOSH, M
   SEN, PK
AF GHOSH, M
   SEN, PK
TI CLASS OF RANK ORDER TESTS FOR REGRESSION WITH PARTIALLY INFORMED
   STOCHASTIC PREDICTORS
SO ANNALS OF MATHEMATICAL STATISTICS
LA English
DT Article
CR BICKEL PJ, 1965, ANN MATH STAT, V36, P160, DOI 10.1214/aoms/1177700280
   Bodewig E., 1956, MATRIX CALCULUS
   BRILLINGER DR, 1962, BIOMETRIKA, V49, P574, DOI 10.1093/biomet/49.3-4.574
   Chatterjee SK, 1964, CALCUTTA STAT ASSOC, V13, P18
   GHOSH M, 1969, THESIS U N CAROLINA
   HAJEK J, 1962, ANN MATH STAT, V33, P1124, DOI 10.1214/aoms/1177704476
   HAJEK J, 1961, ANN MATH STAT, V32, P506, DOI 10.1214/aoms/1177705057
   Hajek J, 1967, THEORY RANK TESTS
   HANNAN EJ, 1956, J ROY STAT SOC B, V18, P227
   HOEFFDING W, 1951, ANN MATH STAT, V22, P558, DOI 10.1214/aoms/1177729545
   Loeve M., 1963, PROBABILITY THEORY
   PURI ML, 1969, ANN MATH STAT, V40, P610, DOI 10.1214/aoms/1177697729
   PURI ML, 1966, SANKHYA SER A, V28, P353
   Wald A, 1943, T AM MATH SOC, V54, P426, DOI 10.2307/1990256
NR 14
TC 8
Z9 8
U1 0
U2 0
PU INST MATHEMATICAL STATISTICS
PI HAYWARD
PA IMS BUSINESS OFFICE-SUITE 7, 3401 INVESTMENT BLVD, HAYWARD, CA 94545
SN 0003-4851
J9 ANN MATH STAT
PY 1971
VL 42
IS 2
BP 650
EP &
DI 10.1214/aoms/1177693415
PG 0
WC Mathematics; Statistics & Probability
SC Mathematics
GA J4063
UT WOS:A1971J406300020
ER

PT J
AU JOSHI, VM
AF JOSHI, VM
TI ADMISSIBILITY OF USUAL CONFIDENCE SETS FOR A CLASS OF VIBARIATE
   POPULATIONS
SO ANNALS OF MATHEMATICAL STATISTICS
LA English
DT Article
CR JOSHI VM, 1969, ANN MATH STAT, V40, P1042, DOI 10.1214/aoms/1177697608
   JOSHI VM, 1967, ANN MATH STAT, V38, P1868, DOI 10.1214/aoms/1177698619
   JOSHI VR, TO BE PUBLISHED
   KIEFER J, 1957, ANN MATH STAT, V28, P573, DOI 10.1214/aoms/1177706874
   KUDO H, 1955, NATL SCI REPORTS, V6, P31
   STEIN CM, 1962, J ROY STAT SOC B, V24, P265
NR 6
TC 1
Z9 1
U1 0
U2 0
PU INST MATHEMATICAL STATISTICS
PI HAYWARD
PA IMS BUSINESS OFFICE-SUITE 7, 3401 INVESTMENT BLVD, HAYWARD, CA 94545
SN 0003-4851
J9 ANN MATH STAT
PY 1971
VL 42
IS 2
BP 662
EP &
DI 10.1214/aoms/1177693416
PG 0
WC Mathematics; Statistics & Probability
SC Mathematics
GA J4063
UT WOS:A1971J406300021
ER

PT J
AU JOSHI, VM
AF JOSHI, VM
TI HYPERADMISSIBILITY OF ESTIMATORS FOR FINITE POPULATIONS
SO ANNALS OF MATHEMATICAL STATISTICS
LA English
DT Article
CR HANURAV TV, 1968, ANN MATH STAT, V39, P621, DOI 10.1214/aoms/1177698422
NR 1
TC 3
Z9 3
U1 0
U2 0
PU INST MATHEMATICAL STATISTICS
PI HAYWARD
PA IMS BUSINESS OFFICE-SUITE 7, 3401 INVESTMENT BLVD, HAYWARD, CA 94545
SN 0003-4851
J9 ANN MATH STAT
PY 1971
VL 42
IS 2
BP 680
EP &
DI 10.1214/aoms/1177693417
PG 0
WC Mathematics; Statistics & Probability
SC Mathematics
GA J4063
UT WOS:A1971J406300022
ER

PT J
AU SEELY, J
   ZYSKIND, G
AF SEELY, J
   ZYSKIND, G
TI LINEAR SPACES AND MINIMUM VARIANCE UNBIASED ESTIMATION
SO ANNALS OF MATHEMATICAL STATISTICS
LA English
DT Article
CR Aitken A. C., 1934, P ROY SOC EDINB, V55, P42
   BARANKIN EW, 1949, ANN MATH STAT, V20, P477, DOI 10.1214/aoms/1177729943
   EATON ML, 1970, ANN MATH STAT, V41, P528, DOI 10.1214/aoms/1177697093
   KRUSKAL W, 1968, ANN MATH STAT, V39, P70, DOI 10.1214/aoms/1177698505
   Lehmann E. L., 1950, SANKHYA, V10, P305
   Rao C.R, 1965, LINEAR STATISTICAL I
   Rao CR, 1967, 5TH P BERK S MATH ST, VI, P355
   SEELY J, 1970, ANN MATH STAT, V41, P1725, DOI 10.1214/aoms/1177696817
   SEELY J, 1969, 12 OR STAT U DEP STA
   SEELY JF, 1969, THESIS IOWA STATE U
   SEELY JF, 1969, 17 OR STAT U DEP STA
   STEIN C, 1950, ANN MATH STAT, V21, P406, DOI 10.1214/aoms/1177729799
   THOMAS DH, 1968, ANN MATH STAT, V39, P1365
   ZYSKIND G, 1969, SIAM J APPL MATH, V17, P1190, DOI 10.1137/0117110
   ZYSKIND G, 1967, ANN MATH STAT, V38, P1092, DOI 10.1214/aoms/1177698779
   ZYSKIND G, 1966, ANN MATH STAT, V37, P1862
   ZYSKIND G, 1964, 64193 WRIGHT PATT AI
NR 17
TC 38
Z9 38
U1 0
U2 0
PU INST MATHEMATICAL STATISTICS
PI HAYWARD
PA IMS BUSINESS OFFICE-SUITE 7, 3401 INVESTMENT BLVD, HAYWARD, CA 94545
SN 0003-4851
J9 ANN MATH STAT
PY 1971
VL 42
IS 2
BP 691
EP &
DI 10.1214/aoms/1177693418
PG 0
WC Mathematics; Statistics & Probability
SC Mathematics
GA J4063
UT WOS:A1971J406300023
ER

PT J
AU WEISBERG, H
AF WEISBERG, H
TI DISTRIBUTION OF LINEAR COMBINATIONS OF ORDER STATISTICS FROM UNIFORM
   DISTRIBUTION
SO ANNALS OF MATHEMATICAL STATISTICS
LA English
DT Article
CR DEMPSTER AP, 1968, ANN MATH STAT, V39, P1473
   LINDLEY DV, 1964, ANN MATH STAT, V35, P1622, DOI 10.1214/aoms/1177700386
   RALSTON A, 1965, 1 COURSE NUMERICAL A
   Wilks S. S., 1962, MATHEMATICAL STATIST
NR 4
TC 23
Z9 23
U1 0
U2 2
PU INST MATHEMATICAL STATISTICS
PI HAYWARD
PA IMS BUSINESS OFFICE-SUITE 7, 3401 INVESTMENT BLVD, HAYWARD, CA 94545
SN 0003-4851
J9 ANN MATH STAT
PY 1971
VL 42
IS 2
BP 704
EP &
DI 10.1214/aoms/1177693419
PG 0
WC Mathematics; Statistics & Probability
SC Mathematics
GA J4063
UT WOS:A1971J406300024
ER

PT J
AU SEELY, J
AF SEELY, J
TI QUADRATIC SUBSPACES AND COMPLETENESS
SO ANNALS OF MATHEMATICAL STATISTICS
LA English
DT Article
CR BASSON PR, 1965, THESIS IOWA STATE U
   GRAYBILL FA, 1961, ANN MATH STAT, V32, P261, DOI 10.1214/aoms/1177705158
   HSU PL, 1938, LONDON U STATIST RES, V2, P91
   HULTQUIST RA, 1965, J AM STAT ASSOC, V60, P182, DOI 10.2307/2283144
   KEMPTHORNE O, 1952, DESIGN ANALYSIS EXPE
   LEHMANN EL, 1959, TESTING STATISTICAL
   Lehmann E. L., 1950, SANKHYA, V10, P305
   RUDIN W, 1964, PRINCIPLES MATHEMATI
   SEELY J, 1970, ANN MATH STAT, V41, P1735, DOI 10.1214/aoms/1177696818
   SEELY J, 1971, ANN MATH STAT, V42
   SEELY JF, 1969, THESIS IOWA STATE U
   SEELY JF, 1969, 17 OR STAT U DEP STA
NR 12
TC 105
Z9 106
U1 0
U2 1
PU INST MATHEMATICAL STATISTICS
PI HAYWARD
PA IMS BUSINESS OFFICE-SUITE 7, 3401 INVESTMENT BLVD, HAYWARD, CA 94545
SN 0003-4851
J9 ANN MATH STAT
PY 1971
VL 42
IS 2
BP 710
EP &
DI 10.1214/aoms/1177693420
PG 0
WC Mathematics; Statistics & Probability
SC Mathematics
GA J4063
UT WOS:A1971J406300025
ER

PT J
AU SRIVASTAVA, JN
   CHOPRA, DV
AF SRIVASTAVA, JN
   CHOPRA, DV
TI CHARACTERISTIC ROOTS OF INFORMATION MATRIX OF 2M BALANCED FACTORIAL
   DESIGNS OF RESOLUTION V, WITH APPLICATIONS
SO ANNALS OF MATHEMATICAL STATISTICS
LA English
DT Article
CR BOSE RC, 1952, ANN MATH STAT, V23, P508, DOI 10.1214/aoms/1177729331
   Bose R. C., 1964, SANKHYA A, V26, P145
   Bose R.C., 1964, SANKHYA A, V26, P117
   BOX GE, 1961, TECHNOMETRICS, V3, P311, DOI 10.2307/1266725
   BOX GEP, 1961, TECHNOMETRICS, V3, P449, DOI 10.2307/1266553
   Chakravarti I. M., 1956, SANKHYA, V17, P143
   CHOPRA DV, 1967, THESIS U NEBRASKA
   RAO CR, 1947, SUPPL J ROY STATIST, V9, P128, DOI 10.2307/2983576
   SEIDEN E, 1966, ANN MATH STAT, V37, P1355, DOI 10.1214/aoms/1177699280
   SRIVASTAVA JK, TO BE PUBLISHED
   SRIVASTAVA JN, 1961, 301 U N CAR I STAT M
   SRIVASTAVA JN, 1970, SN ROY MEMORIAL VOLU, P689
   SRIVASTAVA JN, 1965, ANN I STAT MATH, V18, P55
NR 13
TC 44
Z9 44
U1 0
U2 0
PU INST MATHEMATICAL STATISTICS
PI CLEVELAND
PA 3163 SOMERSET DR, CLEVELAND, OH 44122 USA
SN 0003-4851
J9 ANN MATH STAT
JI Ann. Math. Stat.
PY 1971
VL 42
IS 2
BP 722
EP +
DI 10.1214/aoms/1177693421
PG 1
WC Mathematics; Statistics & Probability
SC Mathematics
GA J4063
UT WOS:A1971J406300026
ER

PT J
AU HOU, T
AF HOU, T
TI APPROACHABILITY IN A 2-PERSON GAME
SO ANNALS OF MATHEMATICAL STATISTICS
LA English
DT Article
CR Blackwell D., 1956, PAC J MATH, V6, P1, DOI 10.2140/pjm.1956.6.1
   BLACKWELL D, 1954, 3 P INT C MATH, P336
   CHOW YS, 1962, MARTINGALE CONVERGEN
   HOU TF, 1969, ANN MATH STAT, V40, P789, DOI 10.1214/aoms/1177697588
   HOU TF, UNPUBLISHED TECHNICA
   Loeve M., 1955, PROBABILITY THEORY
   VONNUMANN, 1953, THEORY GAMES ECONOMI
NR 7
TC 12
Z9 12
U1 0
U2 0
PU INST MATHEMATICAL STATISTICS
PI HAYWARD
PA IMS BUSINESS OFFICE-SUITE 7, 3401 INVESTMENT BLVD, HAYWARD, CA 94545
SN 0003-4851
J9 ANN MATH STAT
PY 1971
VL 42
IS 2
BP 735
EP &
DI 10.1214/aoms/1177693422
PG 0
WC Mathematics; Statistics & Probability
SC Mathematics
GA J4063
UT WOS:A1971J406300027
ER

PT J
AU KADANE, JB
AF KADANE, JB
TI MOMENT PROBLEM FOR ORDER STATISTICS
SO ANNALS OF MATHEMATICAL STATISTICS
LA English
DT Article
CR KADANE JB, 1969, AM SOCIOL REV, V34, P710, DOI 10.2307/2092307
   Karlin S., 1966, TCHEBYCHEFF SYSTEMS
   Krein M., 1951, AM MATH SOC TRANSL 2, V12, P1
   MALLOWS CL, UNPUBLISHED
   MCCOOL JI, 1965, TECHNOMETRICS, V7, P543, DOI 10.2307/1266394
   SHOHAT JA, 1943, PROBLEM MOMENTS MATH
   SILLITTO GP, 1964, BIOMETRIKA, V51, P259, DOI 10.2307/2334216
   YOUNG DH, 1967, BIOMETRIKA, V54, P283, DOI 10.2307/2333871
NR 8
TC 12
Z9 13
U1 0
U2 0
PU INST MATHEMATICAL STATISTICS
PI HAYWARD
PA IMS BUSINESS OFFICE-SUITE 7, 3401 INVESTMENT BLVD, HAYWARD, CA 94545
SN 0003-4851
J9 ANN MATH STAT
PY 1971
VL 42
IS 2
BP 745
EP &
DI 10.1214/aoms/1177693423
PG 0
WC Mathematics; Statistics & Probability
SC Mathematics
GA J4063
UT WOS:A1971J406300028
ER

PT J
AU WATERMAN, MS
AF WATERMAN, MS
TI NOTE ON REPARAMETRIZATION OF AN EXPONENTIAL FAMILY
SO ANNALS OF MATHEMATICAL STATISTICS
LA English
DT Note
CR BLACKWELL D, 1954, THEORY GAMES STATIST
   Erdelyi A., 1956, ASYMPTOTIC EXPANSION
   GIRSHICK MA, 1951, 2ND P BERK S MATH ST, V1, P53
   GUTHRIE D, 1959, ANN MATH STAT, V30, P896, DOI 10.1214/aoms/1177706075
   LEHMANN EL, 1959, TESTING STATISTICAL
NR 5
TC 0
Z9 0
U1 0
U2 0
PU INST MATHEMATICAL STATISTICS
PI HAYWARD
PA IMS BUSINESS OFFICE-SUITE 7, 3401 INVESTMENT BLVD, HAYWARD, CA 94545
SN 0003-4851
J9 ANN MATH STAT
PY 1971
VL 42
IS 2
BP 752
EP &
DI 10.1214/aoms/1177693424
PG 0
WC Mathematics; Statistics & Probability
SC Mathematics
GA J4063
UT WOS:A1971J406300029
ER

PT J
AU ANDEL, J
AF ANDEL, J
TI MULTIPLE AUTOREGRESSIVE SERIES
SO ANNALS OF MATHEMATICAL STATISTICS
LA English
DT Note
CR CHAMPERNOWNE DG, 1948, J ROY STAT SOC B, V10, P204
   HAJEK J, 1962, CZECH MATH J, V12, P404
   HAJEK J, 1969, STATIONARY PROCESSES
   Mann HB, 1943, ECONOMETRICA, V11, P173, DOI 10.2307/1905674
   PARZEN E, 1961, ANN MATH STAT, V32, P951, DOI 10.1214/aoms/1177704840
   QUENOUILLE MH, 1957, ANALYSIS MULTIPLE TI
   SIDDIQUI MM, 1958, ANN MATH STAT, V29, P585, DOI 10.1214/aoms/1177706636
   WHITTLE P, 1953, J ROY STAT SOC B, V15, P125
   Whittle P., 1963, PREDICTION REGULATIO
   WISE J, 1955, BIOMETRIKA, V42, P151, DOI 10.2307/2333432
NR 10
TC 4
Z9 4
U1 0
U2 0
PU INST MATHEMATICAL STATISTICS
PI HAYWARD
PA IMS BUSINESS OFFICE-SUITE 7, 3401 INVESTMENT BLVD, HAYWARD, CA 94545
SN 0003-4851
J9 ANN MATH STAT
PY 1971
VL 42
IS 2
BP 755
EP &
DI 10.1214/aoms/1177693425
PG 0
WC Mathematics; Statistics & Probability
SC Mathematics
GA J4063
UT WOS:A1971J406300030
ER

PT J
AU TOMKINS, RJ
AF TOMKINS, RJ
TI ITERATED LOGARITHM THEOREM FOR SOME WEIGHTED AVERAGES OF INDEPENDENT
   RANDOM VARIABLES
SO ANNALS OF MATHEMATICAL STATISTICS
LA English
DT Note
CR GAPOSHKIN VF, 1965, THEOR PROBAB APPL+, V10, P411, DOI 10.1137/1110049
   Kolmogoroff A, 1929, MATH ANN, V101, P126, DOI 10.1007/BF01454828
   Loeve M., 1963, PROBABILITY THEORY
   Strassen V., 1964, Z WAHRSCHEINLICHKEIT, V3, P211, DOI 10.1007/BF00534910
   TOMKINS RJ, 1970, THESIS PURDUE U
NR 5
TC 17
Z9 17
U1 0
U2 0
PU INST MATHEMATICAL STATISTICS
PI HAYWARD
PA IMS BUSINESS OFFICE-SUITE 7, 3401 INVESTMENT BLVD, HAYWARD, CA 94545
SN 0003-4851
J9 ANN MATH STAT
PY 1971
VL 42
IS 2
BP 760
EP &
DI 10.1214/aoms/1177693426
PG 0
WC Mathematics; Statistics & Probability
SC Mathematics
GA J4063
UT WOS:A1971J406300031
ER

PT J
AU PILLAI, KCS
   NAGARSEN.BN
AF PILLAI, KCS
   NAGARSEN.BN
TI DISTRIBUTION OF SPHERICITY TEST CRITERION IN CLASSICAL AND COMPLES
   NORMAL POPULATIONS HAVING UNKOWN COVARIANCE MATRICES
SO ANNALS OF MATHEMATICAL STATISTICS
LA English
DT Note
CR ANDERSON TW, 1958, INTRODUCTION MULTIVA
   CONSTANTINE AG, 1963, ANN MATH STAT, V34, P1270, DOI 10.1214/aoms/1177703863
   CONSUL PC, 1967, ANN MATH STAT, V38, P1170, DOI 10.1214/aoms/1177698786
   CONSUL PC, 1969, MULTIVARIATE ANALYSI, V2
   GOODMAN NR, 1963, ANN MATH STAT, V34, P152, DOI 10.1214/aoms/1177704250
   JAMES AT, 1964, ANN MATH STAT, V35, P475, DOI 10.1214/aoms/1177703550
   KHATRI CG, 1966, ANN MATH STAT, V37, P468, DOI 10.1214/aoms/1177699530
   KHATRI CG, 1965, ANN MATH STAT, V36, P98, DOI 10.1214/aoms/1177700274
   LUKE YL, 1969, SPECIAL FUNCTION THE
   Mauchly JW, 1940, ANN MATH STAT, V11, P204, DOI 10.1214/aoms/1177731915
   PILLAI KCS, 1969, ANN MATH STAT, V40, P2033, DOI 10.1214/aoms/1177697283
NR 11
TC 22
Z9 22
U1 0
U2 2
PU INST MATHEMATICAL STATISTICS
PI HAYWARD
PA IMS BUSINESS OFFICE-SUITE 7, 3401 INVESTMENT BLVD, HAYWARD, CA 94545
SN 0003-4851
J9 ANN MATH STAT
PY 1971
VL 42
IS 2
BP 764
EP &
DI 10.1214/aoms/1177693427
PG 0
WC Mathematics; Statistics & Probability
SC Mathematics
GA J4063
UT WOS:A1971J406300032
ER

PT J
AU SUGIURA, N
AF SUGIURA, N
TI NOTE ON SOME FORMULAS FOR WEIGHTED SUMS OF ZONAL POLYNOMIALS
SO ANNALS OF MATHEMATICAL STATISTICS
LA English
DT Note
CR Fujikoshi Y., 1970, J SCI HIROSHIMA U A1, V34, P73
   FUJIKOSHI Y, 1968, J SCI HIROSHIMA U A1, V32, P293
   JAMES AT, 1968, ANN MATH STAT, V39, P1711
   JAMES AT, 1964, ANN MATH STAT, V35, P475, DOI 10.1214/aoms/1177703550
   SUGIURA N, 1969, ANN MATH STAT, V40, P942, DOI 10.1214/aoms/1177697599
   SUGIURA N, 1969, 609 U N CAR I STAT M
NR 6
TC 6
Z9 6
U1 0
U2 0
PU INST MATHEMATICAL STATISTICS
PI HAYWARD
PA IMS BUSINESS OFFICE-SUITE 7, 3401 INVESTMENT BLVD, HAYWARD, CA 94545
SN 0003-4851
J9 ANN MATH STAT
PY 1971
VL 42
IS 2
BP 768
EP &
DI 10.1214/aoms/1177693428
PG 0
WC Mathematics; Statistics & Probability
SC Mathematics
GA J4063
UT WOS:A1971J406300033
ER

PT J
AU BROWN, M
AF BROWN, M
TI DISCRIMINATION OF POISSON PROCESSES
SO ANNALS OF MATHEMATICAL STATISTICS
LA English
DT Note
CR BROWN M, 1970, ANN MATH STAT, V41, P1935, DOI 10.1214/aoms/1177696694
   BROWN M, 1970, DISCRIMINATION POISS
   Gikhman I. I., 1966, RUSS MATH SURV, V21, P83, DOI 10.1070/RM1966v021n06ABEH001197
   Gnedenko B. V., 1954, LIMIT DISTRIBUTIONS
   Loeve M., 1963, PROBABILITY THEORY
   Neveu J, 1965, MATHEMATICAL FOUNDAT
NR 6
TC 20
Z9 20
U1 0
U2 0
PU INST MATHEMATICAL STATISTICS
PI HAYWARD
PA IMS BUSINESS OFFICE-SUITE 7, 3401 INVESTMENT BLVD, HAYWARD, CA 94545
SN 0003-4851
J9 ANN MATH STAT
PY 1971
VL 42
IS 2
BP 773
EP &
DI 10.1214/aoms/1177693429
PG 0
WC Mathematics; Statistics & Probability
SC Mathematics
GA J4063
UT WOS:A1971J406300034
ER

PT J
AU BROWN, BM
AF BROWN, BM
TI NOTE ON CONVERGENCE OF MOMENTS
SO ANNALS OF MATHEMATICAL STATISTICS
LA English
DT Note
CR BERNSTEIN S, 1939, DOKL AKAD NAUK SSSR, V24, P3
   BROWN BM, 1969, ANN MATH STAT, V40, P1236, DOI 10.1214/aoms/1177697499
   BROWN BM, 1970, ANN MATH STAT, V41, P1853, DOI 10.1214/aoms/1177696686
   BROWN BM, 1970, ANN MATH STAT, V41, P658, DOI 10.1214/aoms/1177697109
NR 4
TC 8
Z9 8
U1 0
U2 0
PU INST MATHEMATICAL STATISTICS
PI HAYWARD
PA IMS BUSINESS OFFICE-SUITE 7, 3401 INVESTMENT BLVD, HAYWARD, CA 94545
SN 0003-4851
J9 ANN MATH STAT
PY 1971
VL 42
IS 2
BP 777
EP &
DI 10.1214/aoms/1177693430
PG 0
WC Mathematics; Statistics & Probability
SC Mathematics
GA J4063
UT WOS:A1971J406300035
ER

PT J
AU PILLAI, RN
AF PILLAI, RN
TI SEMI STABLE LAWS AS LIMIT DISTRIBUTIONS
SO ANNALS OF MATHEMATICAL STATISTICS
LA English
DT Note
CR Gnedenko B., 1954, LIMIT DISTRIBUTION S
   LEVY P, 1937, THEORE ADDITION VARI
   LINNIK YV, 1960, DECOMPOSITION PROBAB
   Loeve M., 1963, PROBABILITY THEORY
   Lukacs E., 1960, CHARACTERISTIC FUNCT
   PATHAK PK, 1968, SANKHYA            A, V30, P141
   PILLAI RN, 1968, SANKHYA            A, V30, P145
   RAMACHANDRAN B, 1968, SANKHYA            A, V30, P145
   RAO CR, 1967, SANKHYA SER A, V29, P1
NR 9
TC 22
Z9 23
U1 0
U2 0
PU INST MATHEMATICAL STATISTICS
PI HAYWARD
PA IMS BUSINESS OFFICE-SUITE 7, 3401 INVESTMENT BLVD, HAYWARD, CA 94545
SN 0003-4851
J9 ANN MATH STAT
PY 1971
VL 42
IS 2
BP 780
EP &
DI 10.1214/aoms/1177693431
PG 0
WC Mathematics; Statistics & Probability
SC Mathematics
GA J4063
UT WOS:A1971J406300036
ER

PT J
AU MASON, DJ
AF MASON, DJ
TI LOCAL THEOREMS IN STRENGTHENED FORM FOR LATTICE RANDOM VARIABLES
SO ANNALS OF MATHEMATICAL STATISTICS
LA English
DT Note
CR Gnedenko B. V., 1954, LIMIT DISTRIBUTIONS
   KRUGLOV VM, 1968, THEOR PROBAB APPL, V13, P332
   MASON JD, 1970, ANN MATH STAT, V41, P101, DOI 10.1214/aoms/1177697192
   PETROV VV, 1965, LITOVSK MAT SB, V5, P443
   ZINGER AA, 1965, THEOR PROBAB APPL+, V10, P607, DOI 10.1137/1110076
NR 5
TC 0
Z9 0
U1 0
U2 0
PU INST MATHEMATICAL STATISTICS
PI HAYWARD
PA IMS BUSINESS OFFICE-SUITE 7, 3401 INVESTMENT BLVD, HAYWARD, CA 94545
SN 0003-4851
J9 ANN MATH STAT
PY 1971
VL 42
IS 2
BP 784
EP &
PG 0
WC Mathematics; Statistics & Probability
SC Mathematics
GA J4063
UT WOS:A1971J406300037
ER

PT J
AU ALHUSSAI.A
AF ALHUSSAI.A
TI INDEPENDENT SEQUENCES WITH CAREFOOT-FLETT PROPERTY
SO ANNALS OF MATHEMATICAL STATISTICS
LA English
DT Note
CR Breiman L., 1968, PROBABILITY
   BURKHOLD.DL, 1968, ANN MATH STAT, V39, P1282, DOI 10.1214/aoms/1177698253
   CAREFOOT WC, 1967, J LONDON MATH SOC, V42, P542
   Loeve M., 1963, PROBABILITY THEORY
NR 4
TC 0
Z9 0
U1 0
U2 0
PU INST MATHEMATICAL STATISTICS
PI HAYWARD
PA IMS BUSINESS OFFICE-SUITE 7, 3401 INVESTMENT BLVD, HAYWARD, CA 94545
SN 0003-4851
J9 ANN MATH STAT
PY 1971
VL 42
IS 2
BP 789
EP &
DI 10.1214/aoms/1177693433
PG 0
WC Mathematics; Statistics & Probability
SC Mathematics
GA J4063
UT WOS:A1971J406300038
ER

PT J
AU LEDYARD, JO
AF LEDYARD, JO
TI PSEUDO-METRIC SPACE OF PROBABILITY MEASURES AND EXISTENCE OF MEASURABLE
   UTILITY
SO ANNALS OF MATHEMATICAL STATISTICS
LA English
DT Note
CR DEBREU G, 1959, THOERY VALUE
   DUBINS L, 1965, HOW TO GAMBLE IF YOU
   FISHBURN PC, 1967, ANN MATH STAT, V38, P1054, DOI 10.1214/aoms/1177698774
   Fishburn Peter C, 1970, UTILITY THEORY DECIS
   HACKLEMAN RP, 1967, THESIS CARNEGIE I TE
   NEUMANN JV, 1953, THEORY GAMES ECONOMI
NR 6
TC 10
Z9 10
U1 0
U2 0
PU INST MATHEMATICAL STATISTICS
PI HAYWARD
PA IMS BUSINESS OFFICE-SUITE 7, 3401 INVESTMENT BLVD, HAYWARD, CA 94545
SN 0003-4851
J9 ANN MATH STAT
PY 1971
VL 42
IS 2
BP 794
EP &
DI 10.1214/aoms/1177693434
PG 0
WC Mathematics; Statistics & Probability
SC Mathematics
GA J4063
UT WOS:A1971J406300039
ER

PT J
AU PORTNOY, S
   STEIN, C
AF PORTNOY, S
   STEIN, C
TI INADMISSIBILITY OF BEST INVARIANT TEST IN 3 OR MORE DIMENSIONS
SO ANNALS OF MATHEMATICAL STATISTICS
LA English
DT Note
CR LEHMANN EL, 1953, ANN MATH STAT, V24, P473, DOI 10.1214/aoms/1177728987
   Stein C, 1966, RES PAPERS STATISTIC, P351
NR 2
TC 4
Z9 4
U1 0
U2 0
PU INST MATHEMATICAL STATISTICS
PI HAYWARD
PA IMS BUSINESS OFFICE-SUITE 7, 3401 INVESTMENT BLVD, HAYWARD, CA 94545
SN 0003-4851
J9 ANN MATH STAT
PY 1971
VL 42
IS 2
BP 799
EP &
DI 10.1214/aoms/1177693435
PG 0
WC Mathematics; Statistics & Probability
SC Mathematics
GA J4063
UT WOS:A1971J406300040
ER

PT J
AU KELKER, D
AF KELKER, D
TI INFINITE DIVISIBILITY AND VARIANCE MIXTURES OF NORMAL DISTRIBUTION
SO ANNALS OF MATHEMATICAL STATISTICS
LA English
DT Note
CR FELLER W, 1966, INTRODUCTION PROBABI, V2
   Gnedenko B. V., 1954, LIMIT DISTRIBUTIONS
   GOLDIE C, 1967, PROC CAMB PHILOS S-M, V63, P1141
   Lukacs E., 1960, CHARACTERISTIC FUNCT
   Schoenberg IJ, 1938, ANN MATH, V39, P811, DOI 10.2307/1968466
   Starkey DM, 1938, ANN MATH STAT, V9, P201, DOI 10.1214/aoms/1177732310
   STEUTEL FW, 1968, ANN MATH STAT, V39, P1153, DOI 10.1214/aoms/1177698239
   TORTRAT A, CR ACAD SCI PARIS AB, V269, pA784
NR 8
TC 44
Z9 44
U1 0
U2 0
PU INST MATHEMATICAL STATISTICS
PI HAYWARD
PA IMS BUSINESS OFFICE-SUITE 7, 3401 INVESTMENT BLVD, HAYWARD, CA 94545
SN 0003-4851
J9 ANN MATH STAT
PY 1971
VL 42
IS 2
BP 802
EP &
DI 10.1214/aoms/1177693436
PG 0
WC Mathematics; Statistics & Probability
SC Mathematics
GA J4063
UT WOS:A1971J406300041
ER

PT J
AU HARVILLE, DA
AF HARVILLE, DA
TI DISTRIBUTION OF LINEAR COMBINATIONS OF NON-CENTRAL CHI-SQUARES
SO ANNALS OF MATHEMATICAL STATISTICS
LA English
DT Article
CR PRESS SJ, 1966, ANN MATH STAT, V37, P480, DOI 10.1214/aoms/1177699531
   ROBINSON J, 1965, AUST J STAT, V7, P110
NR 2
TC 5
Z9 5
U1 0
U2 0
PU INST MATHEMATICAL STATISTICS
PI HAYWARD
PA IMS BUSINESS OFFICE-SUITE 7, 3401 INVESTMENT BLVD, HAYWARD, CA 94545
SN 0003-4851
J9 ANN MATH STAT
PY 1971
VL 42
IS 2
BP 809
EP &
DI 10.1214/aoms/1177693437
PG 0
WC Mathematics; Statistics & Probability
SC Mathematics
GA J4063
UT WOS:A1971J406300042
ER

PT J
AU STEUTEL, FW
AF STEUTEL, FW
TI ZEROS OF INFINITELY DIVISIBLE DENSITIES
SO ANNALS OF MATHEMATICAL STATISTICS
LA English
DT Note
CR FELLER W, 1957, INTRODUCTION PROBABI, V1
   FELLER W, 1966, INTRODUCTION PROBABI, V2
   KATTI SK, 1967, ANN MATH STAT, V38, P1306, DOI 10.1214/aoms/1177698807
   SHARPE M, 1969, ANN MATH STAT, V40, P1503, DOI 10.1214/aoms/1177697525
   STEUTEL FW, 1967, ANN MATH STAT, V38, P1303, DOI 10.1214/aoms/1177698806
   STEUTEL FW, 1969, MATHEMATICAL COMMUNI, V4
NR 6
TC 4
Z9 4
U1 0
U2 1
PU INST MATHEMATICAL STATISTICS
PI HAYWARD
PA IMS BUSINESS OFFICE-SUITE 7, 3401 INVESTMENT BLVD, HAYWARD, CA 94545
SN 0003-4851
J9 ANN MATH STAT
PY 1971
VL 42
IS 2
BP 812
EP &
DI 10.1214/aoms/1177693438
PG 0
WC Mathematics; Statistics & Probability
SC Mathematics
GA J4063
UT WOS:A1971J406300043
ER

PT J
AU SHAH, KR
AF SHAH, KR
TI USE OF TRUNCATED ESTIMATOR OF VARIANCE RATIO IN RECOVERY OF INTER-BLOCK
   INFORMATION
SO ANNALS OF MATHEMATICAL STATISTICS
LA English
DT Article
CR GRAYBILL FA, 1959, ANN MATH STAT, V30, P799, DOI 10.1214/aoms/1177706208
   GRAYBILL FA, 1959, BIOMETRICS, V15, P543, DOI 10.2307/2527652
   Roy J., 1962, SANKHYA            A, V24, P269
   SESHADRI V, 1963, BIOMETRICS, V19, P163, DOI 10.2307/2527580
   SHAH KR, 1964, ANN MATH STAT, V35, P1064, DOI 10.1214/aoms/1177703265
   Stein C, 1966, RES PAPERS STATISTIC, P351
   Yates F, 1939, ANN EUGENIC, V9, P136
NR 7
TC 6
Z9 6
U1 0
U2 0
PU INST MATHEMATICAL STATISTICS
PI HAYWARD
PA IMS BUSINESS OFFICE-SUITE 7, 3401 INVESTMENT BLVD, HAYWARD, CA 94545
SN 0003-4851
J9 ANN MATH STAT
PY 1971
VL 42
IS 2
BP 816
EP &
DI 10.1214/aoms/1177693439
PG 0
WC Mathematics; Statistics & Probability
SC Mathematics
GA J4063
UT WOS:A1971J406300044
ER

PT J
AU ERICKSON, RV
AF ERICKSON, RV
TI CONSTANT COEFFICIENT LINEAR DIFFERENTIAL EQUATIONS DRIVEN BY WHITE NOISE
SO ANNALS OF MATHEMATICAL STATISTICS
LA English
DT Article
CR DYM H, 1966, T AM MATH SOC, V123, P130, DOI 10.2307/1994617
   Dynkin E B, 1965, MARKOV PROCESSES
   Khasminskii R. A., 1960, THEOR PROBAB APPL, V5, P179, DOI DOI 10.1137/1105016
   ZAKAI M, 1970, J DIFFER EQUATIONS, V8, P27, DOI 10.1016/0022-0396(70)90037-9
NR 4
TC 10
Z9 10
U1 0
U2 0
PU INST MATHEMATICAL STATISTICS
PI HAYWARD
PA IMS BUSINESS OFFICE-SUITE 7, 3401 INVESTMENT BLVD, HAYWARD, CA 94545
SN 0003-4851
J9 ANN MATH STAT
PY 1971
VL 42
IS 2
BP 820
EP &
DI 10.1214/aoms/1177693440
PG 0
WC Mathematics; Statistics & Probability
SC Mathematics
GA J4063
UT WOS:A1971J406300045
ER

PT J
AU ANDERSON, MR
AF ANDERSON, MR
TI CHARACTERIZATION OF MULTIVARIATE NORMAL DISTRIBUTION
SO ANNALS OF MATHEMATICAL STATISTICS
LA English
DT Note
CR HOGG RV, 1959, INTRODUCTION MATHEMA
NR 1
TC 1
Z9 1
U1 0
U2 0
PU INST MATHEMATICAL STATISTICS
PI HAYWARD
PA IMS BUSINESS OFFICE-SUITE 7, 3401 INVESTMENT BLVD, HAYWARD, CA 94545
SN 0003-4851
J9 ANN MATH STAT
PY 1971
VL 42
IS 2
BP 824
EP &
DI 10.1214/aoms/1177693441
PG 0
WC Mathematics; Statistics & Probability
SC Mathematics
GA J4063
UT WOS:A1971J406300046
ER

PT J
AU STUDDEN, WJ
AF STUDDEN, WJ
TI OPTIMAL DESIGNS FOR MULTIVARIATE POLYNOMIAL EXTRAPOLATION
SO ANNALS OF MATHEMATICAL STATISTICS
LA English
DT Note
CR HOEL PG, 1965, ANN MATH STAT, V36, P1483, DOI 10.1214/aoms/1177699907
   HOEL PG, 1964, ANN MATH STAT, V35, P1553, DOI 10.1214/aoms/1177700379
   KARLIN S, 1966, ANN MATH STAT, V37, P783, DOI 10.1214/aoms/1177699361
   KIEFER J, 1965, ANN MATH STAT, V36, P1627, DOI 10.1214/aoms/1177699793
   KIEFER JC, 1959, J R STAT SOC B, V21, P273
   RIVLIN TJ, 1961, J SOC IND APPL MATH, V9, P670, DOI 10.1137/0109056
   STUDDEN WJ, 1968, ANN MATH STAT, V39, P1435
NR 7
TC 12
Z9 12
U1 0
U2 0
PU INST MATHEMATICAL STATISTICS
PI HAYWARD
PA IMS BUSINESS OFFICE-SUITE 7, 3401 INVESTMENT BLVD, HAYWARD, CA 94545
SN 0003-4851
J9 ANN MATH STAT
PY 1971
VL 42
IS 2
BP 828
EP &
DI 10.1214/aoms/1177693442
PG 0
WC Mathematics; Statistics & Probability
SC Mathematics
GA J4063
UT WOS:A1971J406300047
ER

PT J
AU PIERCE, DA
   BOGDANOF.DA
AF PIERCE, DA
   BOGDANOF.DA
TI NOTE ON BAYES-FIDUCIAL INTERVALS FOR PROBLEMS OF LOCATION AND SCALE
SO ANNALS OF MATHEMATICAL STATISTICS
LA English
DT Article
CR BUEHLER RJ, 1959, ANN MATH STAT, V30, P845, DOI 10.1214/aoms/1177706070
   FRASER DA, 1961, BIOMETRIKA, V48, P261, DOI 10.2307/2332749
   HORA RB, 1966, ANN MATH STAT, V37, P643, DOI 10.1214/aoms/1177699458
   WELCH BL, 1963, J ROY STAT SOC B, V25, P318
NR 4
TC 3
Z9 3
U1 0
U2 0
PU INST MATHEMATICAL STATISTICS
PI HAYWARD
PA IMS BUSINESS OFFICE-SUITE 7, 3401 INVESTMENT BLVD, HAYWARD, CA 94545
SN 0003-4851
J9 ANN MATH STAT
PY 1971
VL 42
IS 2
BP 833
EP &
DI 10.1214/aoms/1177693443
PG 0
WC Mathematics; Statistics & Probability
SC Mathematics
GA J4063
UT WOS:A1971J406300048
ER

PT J
AU DESU, MM
AF DESU, MM
TI CHARACTERIZATION OF EXPONENTIAL DISTRIBUTION BY ORDER STATISTICS
SO ANNALS OF MATHEMATICAL STATISTICS
LA English
DT Note
CR BASU AP, 1965, ANN I STAT MATH, V17, P93, DOI 10.1007/BF02868158
   CRAWFORD GB, 1966, ANN MATH STAT, V37, P1790, DOI 10.1214/aoms/1177699167
   FERGUSON TS, 1964, ANN MATH STAT, V35, P1199, DOI 10.1214/aoms/1177703277
   Govindarajulu Z, 1966, SKAND AKTUR, V49, P132
   KARLIN S, 1966, FIRST COURSE STOCHAS
   TANIS EA, 1964, ANN MATH STAT, V35, P270, DOI 10.1214/aoms/1177703749
NR 6
TC 21
Z9 21
U1 0
U2 0
PU INST MATHEMATICAL STATISTICS
PI HAYWARD
PA IMS BUSINESS OFFICE-SUITE 7, 3401 INVESTMENT BLVD, HAYWARD, CA 94545
SN 0003-4851
J9 ANN MATH STAT
PY 1971
VL 42
IS 2
BP 837
EP &
DI 10.1214/aoms/1177693444
PG 0
WC Mathematics; Statistics & Probability
SC Mathematics
GA J4063
UT WOS:A1971J406300049
ER

PT J
AU JOSHI, VM
AF JOSHI, VM
TI ADMISSIBILITY OF ARBITRARY ESTIMATES AS UNBIASED ESTIMATES OF THEIR
   EXPECTATIONS IN A FINITE POPULATION
SO ANNALS OF MATHEMATICAL STATISTICS
LA English
DT Article
CR HANURAV TV, 1968, ANN MATH STAT, V39, P621, DOI 10.1214/aoms/1177698422
NR 1
TC 0
Z9 0
U1 0
U2 0
PU INST MATHEMATICAL STATISTICS
PI HAYWARD
PA IMS BUSINESS OFFICE-SUITE 7, 3401 INVESTMENT BLVD, HAYWARD, CA 94545
SN 0003-4851
J9 ANN MATH STAT
PY 1971
VL 42
IS 2
BP 839
EP &
DI 10.1214/aoms/1177693445
PG 0
WC Mathematics; Statistics & Probability
SC Mathematics
GA J4063
UT WOS:A1971J406300050
ER

PT J
AU ROBINSON, J
AF ROBINSON, J
TI CORRECTION
SO ANNALS OF MATHEMATICAL STATISTICS
LA English
DT Correction, Addition
CR ROBINSON J, 1970, ANN MATH STAT, V41, P648, DOI 10.1214/aoms/1177697106
NR 1
TC 0
Z9 0
U1 0
U2 0
PU INST MATHEMATICAL STATISTICS
PI HAYWARD
PA IMS BUSINESS OFFICE-SUITE 7, 3401 INVESTMENT BLVD, HAYWARD, CA 94545
SN 0003-4851
J9 ANN MATH STAT
PY 1971
VL 42
IS 2
BP 842
EP &
DI 10.1214/aoms/1177693446
PG 0
WC Mathematics; Statistics & Probability
SC Mathematics
GA J4063
UT WOS:A1971J406300051
ER

PT J
AU FU, JC
AF FU, JC
TI ASYMPTOTIC PROPERTIES OF A CERTAIN ESTIMATOR RELATED TO MAXIMUM
   LIKELIHOOD ESTIMATOR - (PRELIMINARY REPORT)
SO ANNALS OF MATHEMATICAL STATISTICS
LA English
DT Meeting Abstract
CR BAHADURS, 1967, ANN MATH STAT, V38, P303
NR 1
TC 0
Z9 0
U1 0
U2 1
PU INST MATHEMATICAL STATISTICS
PI HAYWARD
PA IMS BUSINESS OFFICE-SUITE 7, 3401 INVESTMENT BLVD, HAYWARD, CA 94545
SN 0003-4851
J9 ANN MATH STAT
PY 1971
VL 42
IS 2
BP 843
EP &
PG 0
WC Mathematics; Statistics & Probability
SC Mathematics
GA J4063
UT WOS:A1971J406300052
ER

PT J
AU GULATI, BR
AF GULATI, BR
TI SOME RECENT RESULTS IN THEORY OF SYMMETRICAL FACTORIAL DESIGNS AND ERROR
   CORRECTING CODES
SO ANNALS OF MATHEMATICAL STATISTICS
LA English
DT Meeting Abstract
NR 0
TC 0
Z9 0
U1 0
U2 0
PU INST MATHEMATICAL STATISTICS
PI HAYWARD
PA IMS BUSINESS OFFICE-SUITE 7, 3401 INVESTMENT BLVD, HAYWARD, CA 94545
SN 0003-4851
J9 ANN MATH STAT
PY 1971
VL 42
IS 2
BP 843
EP &
PG 0
WC Mathematics; Statistics & Probability
SC Mathematics
GA J4063
UT WOS:A1971J406300054
ER

PT J
AU RAO, LSP
   VANRYZIN, J
AF RAO, LSP
   VANRYZIN, J
TI ASYMPTOTIC THEORY FOR 2 ESTIMATORS OF GENERALIZED FAILURE RATE FUNCTION
SO ANNALS OF MATHEMATICAL STATISTICS
LA English
DT Meeting Abstract
NR 0
TC 0
Z9 0
U1 0
U2 0
PU INST MATHEMATICAL STATISTICS
PI HAYWARD
PA IMS BUSINESS OFFICE-SUITE 7, 3401 INVESTMENT BLVD, HAYWARD, CA 94545
SN 0003-4851
J9 ANN MATH STAT
PY 1971
VL 42
IS 2
BP 843
EP &
PG 0
WC Mathematics; Statistics & Probability
SC Mathematics
GA J4063
UT WOS:A1971J406300053
ER

PT J
AU PAGANO, M
AF PAGANO, M
TI SOME ASYMPTOTIC PROPERTIES OF A 2 DIMENSIONAL PERIODOGRAM
SO ANNALS OF MATHEMATICAL STATISTICS
LA English
DT Meeting Abstract
CR OLSHEN RA, 1967, J APPL PROBAB, V4, P508, DOI 10.2307/3212218
NR 1
TC 0
Z9 0
U1 0
U2 0
PU INST MATHEMATICAL STATISTICS
PI HAYWARD
PA IMS BUSINESS OFFICE-SUITE 7, 3401 INVESTMENT BLVD, HAYWARD, CA 94545
SN 0003-4851
J9 ANN MATH STAT
PY 1971
VL 42
IS 2
BP 844
EP &
PG 0
WC Mathematics; Statistics & Probability
SC Mathematics
GA J4063
UT WOS:A1971J406300055
ER

PT J
AU RAO, BLS
AF RAO, BLS
TI CHARACTERIZATION OF WIENER PROCESS BY SYMMETRY
SO ANNALS OF MATHEMATICAL STATISTICS
LA English
DT Meeting Abstract
CR HEYDE, SANKHYA            A, V32, P115
NR 1
TC 0
Z9 0
U1 0
U2 0
PU INST MATHEMATICAL STATISTICS
PI HAYWARD
PA IMS BUSINESS OFFICE-SUITE 7, 3401 INVESTMENT BLVD, HAYWARD, CA 94545
SN 0003-4851
J9 ANN MATH STAT
PY 1971
VL 42
IS 2
BP 844
EP &
PG 0
WC Mathematics; Statistics & Probability
SC Mathematics
GA J4063
UT WOS:A1971J406300056
ER

PT J
AU RAO, BLS
AF RAO, BLS
TI CHARACTERIZATION OF STATIONARY PROCESSES DIFFERENTIABLE IN MEAN SQUARE
SO ANNALS OF MATHEMATICAL STATISTICS
LA English
DT Meeting Abstract
NR 0
TC 0
Z9 0
U1 0
U2 0
PU INST MATHEMATICAL STATISTICS
PI HAYWARD
PA IMS BUSINESS OFFICE-SUITE 7, 3401 INVESTMENT BLVD, HAYWARD, CA 94545
SN 0003-4851
J9 ANN MATH STAT
PY 1971
VL 42
IS 2
BP 844
EP &
PG 0
WC Mathematics; Statistics & Probability
SC Mathematics
GA J4063
UT WOS:A1971J406300057
ER

PT J
AU AHUJA, JC
AF AHUJA, JC
TI RECURRENCE RELATION FOR MINIMUM VARIANCE UNBIASED ESTIMATOR OF PARAMETER
   OF A LEFT-TRUNCATED POISSON DISTRIBUTION
SO ANNALS OF MATHEMATICAL STATISTICS
LA English
DT Meeting Abstract
CR TATE, 1958, ANN MATH STATIST, V29, P755
NR 1
TC 0
Z9 0
U1 0
U2 0
PU INST MATHEMATICAL STATISTICS
PI HAYWARD
PA IMS BUSINESS OFFICE-SUITE 7, 3401 INVESTMENT BLVD, HAYWARD, CA 94545
SN 0003-4851
J9 ANN MATH STAT
PY 1971
VL 42
IS 2
BP 845
EP &
PG 0
WC Mathematics; Statistics & Probability
SC Mathematics
GA J4063
UT WOS:A1971J406300060
ER

PT J
AU KHAN, RA
AF KHAN, RA
TI SEQUENTIAL ESTIMATION OF A LINEAR FUNCTION OF SEVERAL MEANS
SO ANNALS OF MATHEMATICAL STATISTICS
LA English
DT Meeting Abstract
CR ROBBINS, ANN MATH STAT, V38, P1384
NR 1
TC 0
Z9 0
U1 0
U2 1
PU INST MATHEMATICAL STATISTICS
PI HAYWARD
PA IMS BUSINESS OFFICE-SUITE 7, 3401 INVESTMENT BLVD, HAYWARD, CA 94545
SN 0003-4851
J9 ANN MATH STAT
PY 1971
VL 42
IS 2
BP 845
EP &
PG 0
WC Mathematics; Statistics & Probability
SC Mathematics
GA J4063
UT WOS:A1971J406300058
ER

PT J
AU PAGANO, M
AF PAGANO, M
TI CONSISTEN 2-DIMENSIONAL SPECTRUM ESTIMATOR
SO ANNALS OF MATHEMATICAL STATISTICS
LA English
DT Meeting Abstract
NR 0
TC 0
Z9 0
U1 0
U2 0
PU INST MATHEMATICAL STATISTICS
PI HAYWARD
PA IMS BUSINESS OFFICE-SUITE 7, 3401 INVESTMENT BLVD, HAYWARD, CA 94545
SN 0003-4851
J9 ANN MATH STAT
PY 1971
VL 42
IS 2
BP 845
EP &
PG 0
WC Mathematics; Statistics & Probability
SC Mathematics
GA J4063
UT WOS:A1971J406300059
ER

PT J
AU AHUJA, JC
AF AHUJA, JC
TI EXACT DISTRIBUTION OF SUM OF INDEPENDENT LEFT-TRUNCATED LOGARITHMIC
   SERIES VARIABLES
SO ANNALS OF MATHEMATICAL STATISTICS
LA English
DT Meeting Abstract
CR PATIL, 1965, SANKHYA            A, V27, P271
NR 1
TC 1
Z9 1
U1 0
U2 0
PU INST MATHEMATICAL STATISTICS
PI HAYWARD
PA IMS BUSINESS OFFICE-SUITE 7, 3401 INVESTMENT BLVD, HAYWARD, CA 94545
SN 0003-4851
J9 ANN MATH STAT
PY 1971
VL 42
IS 2
BP 846
EP &
PG 0
WC Mathematics; Statistics & Probability
SC Mathematics
GA J4063
UT WOS:A1971J406300062
ER

PT J
AU PARK, CJ
AF PARK, CJ
TI DISTRIBUTION OF FREQUENCY COUNTS OF GEOMETRIC DISTRIBUTION
SO ANNALS OF MATHEMATICAL STATISTICS
LA English
DT Meeting Abstract
CR WILKS SS, 1961, 4 P BERK S MATH STAT, P707
NR 1
TC 0
Z9 0
U1 0
U2 0
PU INST MATHEMATICAL STATISTICS
PI HAYWARD
PA IMS BUSINESS OFFICE-SUITE 7, 3401 INVESTMENT BLVD, HAYWARD, CA 94545
SN 0003-4851
J9 ANN MATH STAT
PY 1971
VL 42
IS 2
BP 846
EP &
PG 0
WC Mathematics; Statistics & Probability
SC Mathematics
GA J4063
UT WOS:A1971J406300061
ER

PT J
AU BROWN, LD
AF BROWN, LD
TI ADMISSIBLE ESTIMATORS, RECURRENT DIFFUSIONS, AND INSOLUBLE BOUNDARY
   VALUE PROBLEMS
SO ANNALS OF MATHEMATICAL STATISTICS
LA English
DT Article
CR BARANCHI.AJ, 1970, ANN MATH STAT, V41, P642, DOI 10.1214/aoms/1177697104
   BARANCHIK AJ, 1964, 51 STANF U TECHN REP
   BIRNBAUM A, 1955, ANN MATH STAT, V26, P21, DOI 10.1214/aoms/1177728590
   BLYTH CR, 1951, ANN MATH STAT, V22, P22, DOI 10.1214/aoms/1177729690
   BRAMBLE JH, 1963, BN330 U MAR I FLUID
   BROWN LD, 1966, ANN MATH STAT, V37, P1087, DOI 10.1214/aoms/1177699259
   Cramer H., 1946, MATHEMATICAL METHODS
   Doob J. L., 1953, STOCHASTIC PROCESSES
   Dynkin E.B., 1965, MARKOV PROCESSES, VI
   FARRELL RH, 1968, ANN MATH STAT, V39, P1, DOI 10.1214/aoms/1177698501
   FARRELL RH, 1964, ANN MATH STAT, V35, P949, DOI 10.1214/aoms/1177700516
   FARRELL RH, 1966, 5TH P BERK S, V1, P83
   Ito K., 1964, DIFFUSION PROCESSES
   JAMES W, 1960, 4 P BERKL S MATH STA, V1, P361
   Lamperti J., 1960, J MATH ANAL APPL, V1, P314, DOI 10.1016/0022-247X(60)90005-6
   LEHMANN EL, 1959, TESTING STATISTICAL
   MIRANDA C, 1955, EQUAZIONI DERIVATE P
   SACKS J, 1963, ANN MATH STAT, V34, P751, DOI 10.1214/aoms/1177704001
   SERRIN J, 1956, J ANAL MATH, V4, P292
   STEIN C, 1955, ANN MATH STAT, V26, P518, DOI 10.1214/aoms/1177728497
   STEIN C, 1959, ANN MATH STAT, V30, P970, DOI 10.1214/aoms/1177706080
   STEIN C, BERNOULLI BAYES LAPL, P217
   STRAWDERMAN WF, 1969, THESIS RUTGERS U
   STRAWDERMAN WF, TO BE PUBLISHED
   STRAWDERMAN WF, 1971, 6 P BERK S MATH STAT
NR 25
TC 155
Z9 155
U1 1
U2 1
PU INST MATHEMATICAL STATISTICS
PI HAYWARD
PA IMS BUSINESS OFFICE-SUITE 7, 3401 INVESTMENT BLVD, HAYWARD, CA 94545
SN 0003-4851
J9 ANN MATH STAT
PY 1971
VL 42
IS 3
BP 855
EP &
DI 10.1214/aoms/1177693318
PG 0
WC Mathematics; Statistics & Probability
SC Mathematics
GA J6804
UT WOS:A1971J680400001
ER

PT J
AU LEVITAN, ML
AF LEVITAN, ML
TI GENERALIZED DOEBLIN RATIO LIMIT THEOREM
SO ANNALS OF MATHEMATICAL STATISTICS
LA English
DT Article
CR CHACON RV, 1962, J MATH MECH, V11, P961
   Chacon R. V., 1960, ILLINOIS J MATH, V4, P153
   Chung K. L., 1960, MARKOV CHAINS STATIO
   Doob J. L., 1953, STOCHASTIC PROCESSES
   HARRIS TE, 1953, 3 P BERK S MATH STAT, V2, P113
   HARRIS TE, UNPUBLISHED
   ISAAC R, 1967, ILLINOIS J MATH, V11, P608
   JAIN N, 1967, Z WAHRSCHEINLICHKEIT, V8, P19, DOI 10.1007/BF00533942
   Jain N., 1966, Z WAHRSCHEINLICHKEIT, V6, P206, DOI 10.1007/BF00531804
   JAMISON B, 1967, Z WAHRSCHEINLICHKEIT, V8, P41, DOI 10.1007/BF00533943
   Krengel U., 1966, Z WAHRSCHEINLICHKEIT, V6, P302, DOI 10.1007/BF00537829
   LEVITAN ML, 1970, Z WAHRSCHEINLICHKEIT, V15, P29, DOI 10.1007/BF01041973
   METIVIER M, 1969, ANN MATH STAT, V40, P79, DOI 10.1214/aoms/1177697806
   OREY S, 1961, B AM MATH SOC, V67, P571, DOI 10.1090/S0002-9904-1961-10694-0
   Orey S., 1959, PAC J MATH, V9, P805, DOI 10.2140/pjm.1959.9.805
NR 15
TC 0
Z9 0
U1 0
U2 0
PU INST MATHEMATICAL STATISTICS
PI HAYWARD
PA IMS BUSINESS OFFICE-SUITE 7, 3401 INVESTMENT BLVD, HAYWARD, CA 94545
SN 0003-4851
J9 ANN MATH STAT
PY 1971
VL 42
IS 3
BP 904
EP &
DI 10.1214/aoms/1177693319
PG 0
WC Mathematics; Statistics & Probability
SC Mathematics
GA J6804
UT WOS:A1971J680400002
ER

PT J
AU WOLFE, SJ
AF WOLFE, SJ
TI UNIMODALITY OF L FUNCTIONS
SO ANNALS OF MATHEMATICAL STATISTICS
LA English
DT Article
CR BAXTER G, 1960, SANKHYA, V22, P253
   CHUNG KL, 1953, CR HEBD ACAD SCI, V236, P583
   FISZ M, 1963, Z WAHRSCHEINLICHKEIT, V1, P335, DOI 10.1007/BF00533408
   FISZ M, 1963, T AM MATH SOC, V106, P185
   Gnedenko B. V., 1954, LIMIT DISTRIBUTIONS
   IBRAGIMOV IA, 1957, THEOR PROBAB APPL, V2, P117, DOI 10.1137/1102007
   IBRAGIMOV IA, 1956, THEORET PROBAB APPL, V1, P225
   MEDGYESSY P, 1967, STUD SCI MATH HUNG, V2, P441
   SUN TC, 1967, ANN MATH STAT, V38, P1296, DOI 10.1214/aoms/1177698804
   TUCKER HG, 1962, PAC J MATH, V12, P1125
   Tucker H. G, 1967, GRADUATE COURSE PROB
   WINTER A, 1938, ASYMPTOTIC DISTRIBUT
   WINTNER A, 1956, AM J MATH, V78, P819, DOI 10.2307/2372471
NR 13
TC 29
Z9 29
U1 0
U2 0
PU INST MATHEMATICAL STATISTICS
PI HAYWARD
PA IMS BUSINESS OFFICE-SUITE 7, 3401 INVESTMENT BLVD, HAYWARD, CA 94545
SN 0003-4851
J9 ANN MATH STAT
PY 1971
VL 42
IS 3
BP 912
EP &
DI 10.1214/aoms/1177693320
PG 0
WC Mathematics; Statistics & Probability
SC Mathematics
GA J6804
UT WOS:A1971J680400003
ER

PT J
AU KAKUMANU, P
AF KAKUMANU, P
TI CONTINUOUSLY DISCOUNTED MARKOV DECISION MODEL WITH COUNTABLE STATE AND
   ACTION SPACE
SO ANNALS OF MATHEMATICAL STATISTICS
LA English
DT Article
CR BLACKWELL D, 1965, ANN MATH STAT, V36, P220
   Chung K. L., 1967, MARKOV CHAINS STATIO
   DELEVE G, 1964, GENERALIZED MARKOVIA
   Dynkin E. B., 1961, THEORY MARKOV PROCES
   Howard R. A., 1960, DYNAMIC PROGRAMMING
   KAKUMANU PV, 1969, 63 CORN U DEPT OP RE
   MARTINLOF, 1967, OPERATIONS RESEARCH, V15, P872
   MILLER BL, 1968, SIAM J CONTROL, V6, P226
   REUTER GEH, 1953, P CAMB PHILOS SOC, V49, P247
   ROYKOV VV, 1966, THEORY PROBABILITY I, V11, P302
   TAYLOR HM, MARKOV SEQUENTIAL DE
   VEINOTT AF, 1969, ANN MATH STAT, V40, P1635, DOI 10.1214/aoms/1177697379
NR 12
TC 34
Z9 36
U1 0
U2 0
PU INST MATHEMATICAL STATISTICS
PI HAYWARD
PA IMS BUSINESS OFFICE-SUITE 7, 3401 INVESTMENT BLVD, HAYWARD, CA 94545
SN 0003-4851
J9 ANN MATH STAT
PY 1971
VL 42
IS 3
BP 919
EP &
DI 10.1214/aoms/1177693321
PG 0
WC Mathematics; Statistics & Probability
SC Mathematics
GA J6804
UT WOS:A1971J680400004
ER

PT J
AU BERMAN, SM
AF BERMAN, SM
TI ASYMPTOTIC INDEPENDENCE OF NUMBERS OF HIGH AND LOW LEVEL CROSSINGS OF
   STATIONARY GAUSSIAN PROCESSES
SO ANNALS OF MATHEMATICAL STATISTICS
LA English
DT Article
CR BELJAEV YK, 1961, 4 P BERK S MATH STAT, V2, P23
   BELJAEV YK, 1967, TEOR VEROYA PRIMEN, V13, P444
   BERMAN SM, 1964, ANN MATH STAT, V35, P502, DOI 10.1214/aoms/1177703551
   CRAMER H, 1966, ARK MAT, V6, P337, DOI 10.1007/BF02590962
   Cramer H, 1967, STATIONARY RELATED S
   PICKANDS J, 1969, T AM MATH SOC, V145, P75, DOI 10.2307/1995059
   PICKANDS J, 1969, T AM MATH SOC, V145, P51, DOI 10.2307/1995058
   QUALLS C, 1968, ANN MATH STAT, V39, P2108, DOI 10.1214/aoms/1177698039
   QUALLS C, 1970, ARK MAT, V8, P129, DOI 10.1007/BF02589553
   SLEPIAN D, 1962, BELL SYST TECH J, V41, P463
   Volkonskii V. A., 1961, THEORY PROB ITS APP, V6, P186, DOI 10.1137/1106023
   YLVISAKER ND, 1965, ANN MATH STAT, V36, P1043, DOI 10.1214/aoms/1177700077
NR 12
TC 43
Z9 47
U1 0
U2 1
PU INST MATHEMATICAL STATISTICS
PI CLEVELAND
PA 3163 SOMERSET DR, CLEVELAND, OH 44122 USA
SN 0003-4851
J9 ANN MATH STAT
JI Ann. Math. Stat.
PY 1971
VL 42
IS 3
BP 927
EP +
DI 10.1214/aoms/1177693322
PG 1
WC Mathematics; Statistics & Probability
SC Mathematics
GA J6804
UT WOS:A1971J680400005
ER

PT J
AU SHEPP, LA
AF SHEPP, LA
TI FIRST PASSAGE TIME FOR A PARTICULAR GAUSSIAN PROCESS
SO ANNALS OF MATHEMATICAL STATISTICS
LA English
DT Article
CR JAMISON B, 1970, ANN MATH STAT, V41, P1624, DOI 10.1214/aoms/1177696805
   Karlin S., 1959, PAC J MATH, V9, P1141
   MEHR CB, 1965, J R STAT SOC B, V27, P505
   SHEPP LA, 1966, ANN MATH STAT, V37, P321, DOI 10.1214/aoms/1177699516
   SLEPIAN D, 1961, ANN MATH STAT, V32, P610, DOI 10.1214/aoms/1177705068
   Smithies Frank, 1965, INTEGRAL EQUATIONS
   ZAKAI M, 1969, IEEE T INFORMATION T, VIT15, P167
NR 7
TC 36
Z9 36
U1 0
U2 5
PU INST MATHEMATICAL STATISTICS
PI HAYWARD
PA IMS BUSINESS OFFICE-SUITE 7, 3401 INVESTMENT BLVD, HAYWARD, CA 94545
SN 0003-4851
J9 ANN MATH STAT
PY 1971
VL 42
IS 3
BP 946
EP &
DI 10.1214/aoms/1177693323
PG 0
WC Mathematics; Statistics & Probability
SC Mathematics
GA J6804
UT WOS:A1971J680400006
ER

PT J
AU MURTY, VN
AF MURTY, VN
TI OPTIMAL DESIGNS WITH A POLYNOMIAL SPLINE REGRESSION WITH A SINGLE
   MULTIPLE KNOT AT CENTER
SO ANNALS OF MATHEMATICAL STATISTICS
LA English
DT Article
CR KIEFER J, 1965, ANN MATH STAT, V36, P1627, DOI 10.1214/aoms/1177699793
   Meinardus G., 1967, APPROXIMATION FUNCTI
   SCHUMAKER L, 1967, MRC810 U WISC TECHN
   STUDDEN WJ, 1968, ANN MATH STAT, V39, P1435
NR 4
TC 8
Z9 8
U1 0
U2 0
PU INST MATHEMATICAL STATISTICS
PI HAYWARD
PA IMS BUSINESS OFFICE-SUITE 7, 3401 INVESTMENT BLVD, HAYWARD, CA 94545
SN 0003-4851
J9 ANN MATH STAT
PY 1971
VL 42
IS 3
BP 952
EP &
DI 10.1214/aoms/1177693324
PG 0
WC Mathematics; Statistics & Probability
SC Mathematics
GA J6804
UT WOS:A1971J680400007
ER

PT J
AU NEAVE, HR
AF NEAVE, HR
TI EXACT ERROR IN SPECTRUM ESTIMATES
SO ANNALS OF MATHEMATICAL STATISTICS
LA English
DT Article
CR Blackman R. B., 1958, MEASUREMENT POWER SP
   Fisher RA, 1929, P R SOC LOND A-CONTA, V125, P54, DOI 10.1098/rspa.1929.0151
   GRANGER C, 1964, SPECTRAL ANALYSIS EC
   GRANGER CWJ, 1968, J R STAT SOC SER A-G, V131, P83, DOI 10.2307/2344088
   Isserlis L, 1918, BIOMETRIKA, V12, P134, DOI 10.2307/2331932
   JENKINS GM, 1968, SPECTRAL ANALYSIS IT
   NEAVE HR, 1970, ANN MATH STAT, V41, P70, DOI 10.1214/aoms/1177697189
   NEAVE HR, 1968, 158 U WISC DEPT STAT
   NEAVE HR, TO BE PUBLISHED
   PARZEN E, 1964, RADIO SCI          D, V68, P937
   PRIESTLEY MB, 1962, TECHNOMETRICS, V4, P551, DOI 10.2307/1266289
   PRIESTLEY MB, 1965, APPL STATIST, V14, P33, DOI 10.2307/2985353
NR 12
TC 3
Z9 3
U1 0
U2 0
PU INST MATHEMATICAL STATISTICS
PI HAYWARD
PA IMS BUSINESS OFFICE-SUITE 7, 3401 INVESTMENT BLVD, HAYWARD, CA 94545
SN 0003-4851
J9 ANN MATH STAT
PY 1971
VL 42
IS 3
BP 961
EP &
DI 10.1214/aoms/1177693325
PG 0
WC Mathematics; Statistics & Probability
SC Mathematics
GA J6804
UT WOS:A1971J680400008
ER

PT J
AU KLEYLE, R
AF KLEYLE, R
TI UPPER AND LOWER POSTERIOR PROBABILITIES FOR TRUNCATED MEANS
SO ANNALS OF MATHEMATICAL STATISTICS
LA English
DT Article
CR CHERNOFF H, 1967, ANN MATH STAT, V38, P52, DOI 10.1214/aoms/1177699058
   DEMPSTER AP, 1967, ANN MATH STAT, V38, P325, DOI 10.1214/aoms/1177698950
   DEMPSTER AP, 1966, ANN MATH STAT, V37, P355, DOI 10.1214/aoms/1177699517
   DEMPSTER AP, 1968, ANN MATH STAT, V39, P1473
   DEMPSTER AP, 1968, ANN MATH STAT, V39, P957, DOI 10.1214/aoms/1177698328
   Hajek J, 1967, THEORY RANK TESTS
   KLEYLE RM, 1967, THESIS HARVARD U
NR 7
TC 2
Z9 2
U1 0
U2 0
PU INST MATHEMATICAL STATISTICS
PI HAYWARD
PA IMS BUSINESS OFFICE-SUITE 7, 3401 INVESTMENT BLVD, HAYWARD, CA 94545
SN 0003-4851
J9 ANN MATH STAT
PY 1971
VL 42
IS 3
BP 976
EP &
DI 10.1214/aoms/1177693326
PG 0
WC Mathematics; Statistics & Probability
SC Mathematics
GA J6804
UT WOS:A1971J680400009
ER

PT J
AU KURTZ, TG
AF KURTZ, TG
TI COMPARISON OF SEMI-MARKOV AND MARKOV PROCESSES
SO ANNALS OF MATHEMATICAL STATISTICS
LA English
DT Article
CR Billingsley P., 1968, CONVERGENCE PROBABIL
   Breiman L., 1968, PROBABILITY
   KURTZ TG, 1970, J APPL PROBAB, V7, P49, DOI 10.2307/3212147
   Parthasarathy K. R., 1967, PROBABILITY MEASURES
   STONE C., 1963, ILLINOIS J MATH, V7, P638
   Trotter H. F., 1958, PAC J MATH, V8, P887
NR 6
TC 3
Z9 3
U1 0
U2 0
PU INST MATHEMATICAL STATISTICS
PI HAYWARD
PA IMS BUSINESS OFFICE-SUITE 7, 3401 INVESTMENT BLVD, HAYWARD, CA 94545
SN 0003-4851
J9 ANN MATH STAT
PY 1971
VL 42
IS 3
BP 991
EP &
DI 10.1214/aoms/1177693327
PG 0
WC Mathematics; Statistics & Probability
SC Mathematics
GA J6804
UT WOS:A1971J680400010
ER

PT J
AU SCHWARZ, G
AF SCHWARZ, G
TI SEQUENTIAL STUDENT TEST
SO ANNALS OF MATHEMATICAL STATISTICS
LA English
DT Article
CR BECHHOFER R, 1960, J AM STAT ASSOC, V55, P660, DOI 10.2307/2281589
   FUSHIMI M, 1967, REP STATIST APPL RES, V14, P1
   SCHWARZ G, 1962, ANN MATH STAT, V33, P224, DOI 10.1214/aoms/1177704726
   SCHWARZ G, 1969, ANN MATH STAT, V40, P313, DOI 10.1214/aoms/1177697828
   SCHWARZ G, 1968, ANN MATH STAT, V39, P2038, DOI 10.1214/aoms/1177698031
   WALD A, 1947, SEQUENTIAL ANALYSIS
NR 6
TC 5
Z9 5
U1 0
U2 1
PU INST MATHEMATICAL STATISTICS
PI HAYWARD
PA IMS BUSINESS OFFICE-SUITE 7, 3401 INVESTMENT BLVD, HAYWARD, CA 94545
SN 0003-4851
J9 ANN MATH STAT
PY 1971
VL 42
IS 3
BP 1003
EP &
DI 10.1214/aoms/1177693328
PG 0
WC Mathematics; Statistics & Probability
SC Mathematics
GA J6804
UT WOS:A1971J680400011
ER

PT J
AU MATHAI, AM
   RATHIE, PN
AF MATHAI, AM
   RATHIE, PN
TI EXACT DISTRIBUTION OF WILKS CRITERION
SO ANNALS OF MATHEMATICAL STATISTICS
LA English
DT Article
CR ANDERSON TW, 1958, INTRODUCTION MULTIVA
   Bartlett MS, 1938, P CAMB PHILOS SOC, V34, P33
   BOX GEP, 1949, BIOMETRIKA, V36, P317, DOI 10.2307/2332671
   CONSUL PC, 1966, ANN MATH STAT, V37, P1319, DOI 10.1214/aoms/1177699276
   Erdelyi A., 1953, HIGHER TRANSCENDENTA, V1
   Erdelyi A., 1954, TABLES INTEGRAL TRAN, V1
   NAIR U. S., 1938, BIOMETRIKA, V30, P274
   Pearson ES, 1933, BIOMETRIKA, V25, P353, DOI 10.2307/2332289
   PILLAI KCS, 1969, BIOMETRIKA, V56, P109, DOI 10.2307/2334695
   PILLAI KCS, 1960, STATISTICAL TABLES T
   RAO CR, 1948, BIOMETRIKA, V35, P58, DOI 10.2307/2332629
   SCHATZOF.M, 1966, BIOMETRIKA, V53, P347, DOI 10.2307/2333641
   SCHATZOFF M, 1964, ANN MATH STAT, V35, P1397
   SCHATZOFF M, 1964, THESIS HARVARD U
   Wilks SS, 1932, BIOMETRIKA, V24, P471
NR 15
TC 10
Z9 10
U1 0
U2 0
PU INST MATHEMATICAL STATISTICS
PI HAYWARD
PA IMS BUSINESS OFFICE-SUITE 7, 3401 INVESTMENT BLVD, HAYWARD, CA 94545
SN 0003-4851
J9 ANN MATH STAT
PY 1971
VL 42
IS 3
BP 1010
EP &
DI 10.1214/aoms/1177693329
PG 0
WC Mathematics; Statistics & Probability
SC Mathematics
GA J6804
UT WOS:A1971J680400012
ER

PT J
AU JAECKEL, LA
AF JAECKEL, LA
TI ROBUST ESTIMATES OF LOCATION - SYMMETRY AND ASYMMETRIC CONTAMINATION
SO ANNALS OF MATHEMATICAL STATISTICS
LA English
DT Article
CR BICKEL PJ, 1965, ANN MATH STAT, V36, P847, DOI 10.1214/aoms/1177700058
   CHERNOFF H, 1967, ANN MATH STAT, V38, P52, DOI 10.1214/aoms/1177699058
   GASTWIRTH JL, 1966, J AM STAT ASSOC, V61, P929, DOI 10.2307/2283190
   Hajek J, 1967, THEORY RANK TESTS
   HODGES JL, 1963, ANN MATH STAT, V34, P598, DOI 10.1214/aoms/1177704172
   HUBER PJ, 1964, ANN MATH STAT, V35, P73, DOI 10.1214/aoms/1177703732
   HUBER PJ, 1968, MATH CTR TRACTS, V27, P3
   JAECKEL LA, 1969, THESIS U CALIFORNIA
   Tukey J. W., 1960, CONTRIBUTIONS PROBAB
NR 9
TC 75
Z9 75
U1 0
U2 1
PU INST MATHEMATICAL STATISTICS
PI HAYWARD
PA IMS BUSINESS OFFICE-SUITE 7, 3401 INVESTMENT BLVD, HAYWARD, CA 94545
SN 0003-4851
J9 ANN MATH STAT
PY 1971
VL 42
IS 3
BP 1020
EP &
DI 10.1214/aoms/1177693330
PG 0
WC Mathematics; Statistics & Probability
SC Mathematics
GA J6804
UT WOS:A1971J680400013
ER

PT J
AU WAHBA, G
AF WAHBA, G
TI REGESSION DESIGN PROBLEM OF SACKS AND YLVISAKER
SO ANNALS OF MATHEMATICAL STATISTICS
LA English
DT Article
CR ARONSZAJN N, 1950, T AM MATH SOC, V68, P337
   Fort Tomlinson, 1948, FINITE DIFFERENCES D
   Hida T., 1960, MEM COLL SCI U KYOTO, V34, P109
   KARLIN S, 1969, P S APPROXIMATIONS E
   Karlin S., 1968, TOTAL POSITIVITY, VI
   Naimark M. A., 1967, LINEAR DIFFERENTIAL, VI
   PARZEN E, 1961, ANN MATH STAT, V32, P951, DOI 10.1214/aoms/1177704840
   SACKS J, 1966, ANN MATH STAT, V37, P66, DOI 10.1214/aoms/1177699599
   SACKS J, 1968, ANN MATH STAT, V39, P49, DOI 10.1214/aoms/1177698504
   SACKS J, 1969, ANN MATH STATIST, V41, P2057
   SCHOENBERG IJ, 1968, THEORY APPLICATIONS
   SHEPP LA, 1966, ANN MATH STAT, V37, P321, DOI 10.1214/aoms/1177699516
   WAHBA G, 1969, 29 STANF U STAT DEP
NR 13
TC 41
Z9 41
U1 0
U2 0
PU INST MATHEMATICAL STATISTICS
PI HAYWARD
PA IMS BUSINESS OFFICE-SUITE 7, 3401 INVESTMENT BLVD, HAYWARD, CA 94545
SN 0003-4851
J9 ANN MATH STAT
PY 1971
VL 42
IS 3
BP 1035
EP &
DI 10.1214/aoms/1177693331
PG 0
WC Mathematics; Statistics & Probability
SC Mathematics
GA J6804
UT WOS:A1971J680400014
ER

PT J
AU KAILATH, T
AF KAILATH, T
TI STRUCTURE OF RADON-NIKODYM DERIVATIVES WITH RESPECT TO WIENER AND
   RELATED MEASURES
SO ANNALS OF MATHEMATICAL STATISTICS
LA English
DT Article
CR CAMERON RH, 1951, T AM MATH SOC, V70, P160, DOI 10.2307/1990530
   DOELZ M, 1967, P IRE, V45, P656
   Doob J. L., 1953, STOCHASTIC PROCESSES
   DUNCAN TE, 1970, ANN MATH STAT, V41, P30, DOI 10.1214/aoms/1177697185
   FROST PA, 1968, THESIS STANFORD U
   Gikhman I. I., 1966, RUSS MATH SURV, V21, P83, DOI 10.1070/RM1966v021n06ABEH001197
   Girsanov I.V., 1960, THEOR PROBAB APPL, V5, P285, DOI 10.1137/1105027
   GOHBERG IC, 1966, AM MATH SOC TRANSL S, V51, P155
   GREEN PE, 1960, IEEE T INFORMATION T, VIT 6
   HITSUDA M., 1968, OSAKA J MATH, V5, P299
   Ito K., 1965, ANN I FOURIER GRENOB, V15, P13, DOI [DOI 10.5802/AIF.192, 10.5802/aif.192]
   KADOTA TT, TO BE PUBLISHED
   KAILAITH T, 1969, IEEE T INFORM THEORY, VIT15, P350
   KAILATH T, 1967, ANN MATH STAT, V38, P261, DOI 10.1214/aoms/1177699078
   KAILATH T, TO BE PUBLISHED
   KAILATH T, 1970, IEEE T INFORM THEORY, VIT16, P393
   KAILATH T, 1970, IEEE T INFM THEORY, VIT16, P276
   KAILATH T, 1971, ANN MATH STATIST, V42
   KUNITA H, 1967, NAGOYA MATH J, V30, P209
   MASANI P, 1958, ACTA MATH, V98, P111
   McKean Jr H. P., 1969, STOCHASTIC INTEGRALS
   Meyer P. A., 1966, PROBABILITY POTENTIA
   NISIO M, 1961, J MATH KYOTO U, V11, P129
   PRICE R, 1958, P IRE, V46, P555, DOI 10.1109/JRPROC.1958.286870
   PROAKIS JG, 1964, IEEE T COMMUN, VCS12, P54
   SHEPP LA, 1966, ANN MATH STAT, V37, P321, DOI 10.1214/aoms/1177699516
   SHIRYAEV AN, 1966, PROBL PEREDACHI INF, V2, P3
   SKOLNIK M, 1962, INTRODUCTION RADAR S
   WOODWARD PM, 1953, PROBABILITY INFORMAT
   YAGLOM AM, 1963, P S TIME SERIES ANAL
NR 30
TC 28
Z9 28
U1 0
U2 0
PU INST MATHEMATICAL STATISTICS
PI HAYWARD
PA IMS BUSINESS OFFICE-SUITE 7, 3401 INVESTMENT BLVD, HAYWARD, CA 94545
SN 0003-4851
J9 ANN MATH STAT
PY 1971
VL 42
IS 3
BP 1054
EP &
DI 10.1214/aoms/1177693332
PG 0
WC Mathematics; Statistics & Probability
SC Mathematics
GA J6804
UT WOS:A1971J680400015
ER

PT J
AU HOROWITZ, J
AF HOROWITZ, J
TI ARC-SINE LAW AND MARKOV RANDOM SETS
SO ANNALS OF MATHEMATICAL STATISTICS
LA English
DT Article
CR Blumenthal R.M., 1968, MARKOV PROCESSES POT
   Dynkin E, 1961, SELECT TRANSL MATH S, V1, P171
   FELLER W, 1966, INTRODUCTION PROBABI, V2
   HOROWITZ J, TO BE PUBLISHED
   Kingman J. F. C., 1964, Z WAHRSCHEINLICHKEIT, V2, P180, DOI 10.1007/BF00533379
   Krylov N. V., 1965, T MOSKOW MATH SOC, V13, P114
   LAMPERTI J, 1958, J MATH MECH, V7, P433
   LAMPERTI J, 1962, ANN MATH STAT, V33, P685, DOI 10.1214/aoms/1177704590
   Lamperti J., 1962, T AM MATH SOC, V104, P62, DOI 10.2307/1993933
   WHITTAKER ET, 1963, COURSE MODERN ANALYS
NR 10
TC 2
Z9 2
U1 0
U2 0
PU INST MATHEMATICAL STATISTICS
PI HAYWARD
PA IMS BUSINESS OFFICE-SUITE 7, 3401 INVESTMENT BLVD, HAYWARD, CA 94545
SN 0003-4851
J9 ANN MATH STAT
PY 1971
VL 42
IS 3
BP 1068
EP &
DI 10.1214/aoms/1177693333
PG 0
WC Mathematics; Statistics & Probability
SC Mathematics
GA J6804
UT WOS:A1971J680400016
ER

PT J
AU HELLMAN, ME
   COVER, TM
AF HELLMAN, ME
   COVER, TM
TI MEMORY SAVED BY RANDOMIZATION
SO ANNALS OF MATHEMATICAL STATISTICS
LA English
DT Article
CR CHANDRASEKARAN B, 1971, IEEE T INFORM THEORY, VIT17, P104
   CHANDRASEKARAN B, 1970, IEEE T INFORM THEORY, VIT16, P494
   COVER TM, 1970, IEEE T INFORM THEORY, VIT16, P496
   HELLMAN ME, 1970, ANN MATH STAT, V41, P765, DOI 10.1214/aoms/1177696958
NR 4
TC 11
Z9 11
U1 0
U2 0
PU INST MATHEMATICAL STATISTICS
PI HAYWARD
PA IMS BUSINESS OFFICE-SUITE 7, 3401 INVESTMENT BLVD, HAYWARD, CA 94545
SN 0003-4851
J9 ANN MATH STAT
PY 1971
VL 42
IS 3
BP 1075
EP &
DI 10.1214/aoms/1177693334
PG 0
WC Mathematics; Statistics & Probability
SC Mathematics
GA J6804
UT WOS:A1971J680400017
ER

PT J
AU HANSON, DL
   WRIGHT, FT
AF HANSON, DL
   WRIGHT, FT
TI BOUND ON TAIL PROBABILITIES FOR QUADRATIC FORMS IN INDEPENDENT RANDOM
   VARIABLES
SO ANNALS OF MATHEMATICAL STATISTICS
LA English
DT Article
CR HANSON DL, 1967, ANN MATH STAT, V38, P742, DOI 10.1214/aoms/1177698867
   VARBERG DE, 1966, ANN MATH STAT, V37, P567, DOI 10.1214/aoms/1177699449
NR 2
TC 76
Z9 77
U1 1
U2 2
PU INST MATHEMATICAL STATISTICS
PI HAYWARD
PA IMS BUSINESS OFFICE-SUITE 7, 3401 INVESTMENT BLVD, HAYWARD, CA 94545
SN 0003-4851
J9 ANN MATH STAT
PY 1971
VL 42
IS 3
BP 1079
EP &
DI 10.1214/aoms/1177693335
PG 0
WC Mathematics; Statistics & Probability
SC Mathematics
GA J6804
UT WOS:A1971J680400018
ER

PT J
AU KOOP, JC
AF KOOP, JC
TI SPLITTING A SYSTEMATIC SAMPLE FOR VARIANCE ESTIMATION
SO ANNALS OF MATHEMATICAL STATISTICS
LA English
DT Note
CR Madow WG, 1944, ANN MATH STAT, V15, P1, DOI 10.1214/aoms/1177731312
NR 1
TC 11
Z9 11
U1 0
U2 0
PU INST MATHEMATICAL STATISTICS
PI HAYWARD
PA IMS BUSINESS OFFICE-SUITE 7, 3401 INVESTMENT BLVD, HAYWARD, CA 94545
SN 0003-4851
J9 ANN MATH STAT
PY 1971
VL 42
IS 3
BP 1084
EP &
DI 10.1214/aoms/1177693336
PG 0
WC Mathematics; Statistics & Probability
SC Mathematics
GA J6804
UT WOS:A1971J680400019
ER

PT J
AU WARDE, WD
   KATTI, SK
AF WARDE, WD
   KATTI, SK
TI INFINITE DIVISIBILITY OF DISCRETE DISTRIBUTIONS .2.
SO ANNALS OF MATHEMATICAL STATISTICS
LA English
DT Note
CR GOLDIE C, 1967, PROC CAMB PHILOS S-M, V63, P1141
   HORN RA, 1970, LONDON MATH SOC SER, V2, P160
   KATTI SK, 1967, ANN MATH STAT, V38, P1306, DOI 10.1214/aoms/1177698807
   KENDALL DG, 1967, RENEWAL SEQUENCES TH, P147
   STEUTEL FW, 1968, ANN MATH STAT, V39, P1153, DOI 10.1214/aoms/1177698239
   STEUTEL FW, 1967, ANN MATH STAT, V38, P1303, DOI 10.1214/aoms/1177698806
   STEUTEL FW, 1970, ANN MATH STATIST, V40, P1109
NR 7
TC 16
Z9 16
U1 0
U2 0
PU INST MATHEMATICAL STATISTICS
PI HAYWARD
PA IMS BUSINESS OFFICE-SUITE 7, 3401 INVESTMENT BLVD, HAYWARD, CA 94545
SN 0003-4851
J9 ANN MATH STAT
PY 1971
VL 42
IS 3
BP 1088
EP &
DI 10.1214/aoms/1177693337
PG 0
WC Mathematics; Statistics & Probability
SC Mathematics
GA J6804
UT WOS:A1971J680400020
ER

PT J
AU KRENGEL, U
AF KRENGEL, U
TI INDIVIDUAL ERGODIC THEOREM FOR SUBSEQUENCES
SO ANNALS OF MATHEMATICAL STATISTICS
LA English
DT Note
CR Hanson D. L., 1960, B AM MATH SOC, V66, P308, DOI 10.1090/S0002-9904-1960-10481-8
   BRUNEL A, 1969, Z WAHRSCHEINLICHKEIT, V12, P231, DOI 10.1007/BF00534842
   FRIEDMAN N, 1970, INTRODUCTION ERGODIC
   FRIEDMAN NA, TO BE PUBLISHED
   HALMOS PR, 1956, LECTURES ERGODIC THE
   KRENGEL U, 1967, Z WAHRSCHEINLICHKEIT, V7, P161, DOI 10.1007/BF00532635
   KRENGEL U, 1969, Z WAHRSCHEINLICHKEIT, V13, P150, DOI 10.1007/BF00537021
NR 7
TC 14
Z9 14
U1 0
U2 0
PU INST MATHEMATICAL STATISTICS
PI HAYWARD
PA IMS BUSINESS OFFICE-SUITE 7, 3401 INVESTMENT BLVD, HAYWARD, CA 94545
SN 0003-4851
J9 ANN MATH STAT
PY 1971
VL 42
IS 3
BP 1091
EP &
DI 10.1214/aoms/1177693338
PG 0
WC Mathematics; Statistics & Probability
SC Mathematics
GA J6804
UT WOS:A1971J680400021
ER

PT J
AU JOSHI, PC
AF JOSHI, PC
TI RECURRENCE RELATIONS FOR MIXED MOMENTS OF ORDER STATISTICS
SO ANNALS OF MATHEMATICAL STATISTICS
LA English
DT Note
CR GOVINDARAJULU Z, 1963, ANN MATH STAT, V34, P633, DOI 10.1214/aoms/1177704176
NR 1
TC 9
Z9 9
U1 0
U2 0
PU INST MATHEMATICAL STATISTICS
PI HAYWARD
PA IMS BUSINESS OFFICE-SUITE 7, 3401 INVESTMENT BLVD, HAYWARD, CA 94545
SN 0003-4851
J9 ANN MATH STAT
PY 1971
VL 42
IS 3
BP 1096
EP &
DI 10.1214/aoms/1177693339
PG 0
WC Mathematics; Statistics & Probability
SC Mathematics
GA J6804
UT WOS:A1971J680400022
ER

PT J
AU IMHOF, JP
AF IMHOF, JP
TI SOME JOINT LAWS IN FLUCTUATION THEORY
SO ANNALS OF MATHEMATICAL STATISTICS
LA English
DT Note
CR FELLER W, 1967, INTRODUCTION PROBABI, V1
   HOBBY C, 1963, ANN MATH STAT, V34, P1233, DOI 10.1214/aoms/1177703858
   IMHOF JP, 1967, Z WAHRSCHEINLICHKEIT, V9, P10, DOI 10.1007/BF00535462
NR 3
TC 0
Z9 0
U1 0
U2 0
PU INST MATHEMATICAL STATISTICS
PI HAYWARD
PA IMS BUSINESS OFFICE-SUITE 7, 3401 INVESTMENT BLVD, HAYWARD, CA 94545
SN 0003-4851
J9 ANN MATH STAT
PY 1971
VL 42
IS 3
BP 1099
EP &
DI 10.1214/aoms/1177693340
PG 0
WC Mathematics; Statistics & Probability
SC Mathematics
GA J6804
UT WOS:A1971J680400023
ER

PT J
AU SEN, PK
AF SEN, PK
TI ASYMPTOTIC EFFICIENCY OF A CLASS OF ALIGNED RANK ORDER TESTS FOR
   MULTIRESPONSE EXPERIMENTS IN SOME INCOMPLETE BLOCK DESIGNS
SO ANNALS OF MATHEMATICAL STATISTICS
LA English
DT Note
CR ANDERSON TW, 1958, INTRODUCTION MULTIVA
   Benard A, 1953, INDAGATIONES MATH, V15, P358
   BHAPKAR VP, 1961, ANN MATH STAT, V32, P846, DOI 10.1214/aoms/1177704978
   BHAPKAR VP, 1963, J INDIAN STATIST ASS, V1, P24
   CHERNOFF H, 1958, ANN MATH STAT, V29, P972, DOI 10.1214/aoms/1177706436
   Durbin J, 1951, B J PSYCHOL-STAT SEC, V4, P85
   ELTEREN PV, 1959, BIOMETRIKA, V46, P475, DOI 10.2307/2333546
   HODGES JL, 1962, ANN MATH STAT, V33, P482, DOI 10.1214/aoms/1177704575
   KEMPTHORNE O, 1952, DESIGN ANALYSIS EXPE
   SEN PK, 1967, ANN I STAT MATH, V19, P451, DOI 10.1007/BF02911697
   SEN PK, 1968, ANN MATH STAT, V39, P1115, DOI 10.1214/aoms/1177698236
   SEN PK, 1967, ANN MATH STAT, V38, P1216, DOI 10.1214/aoms/1177698790
   SEN PK, 1968, ANN MATH STAT, V39, P200, DOI 10.1214/aoms/1177698519
   SEN PK, 1970, ANN MATH STATIST, V47, P87
   SEN PK, 1969, SANKHYA            A, V31, P156
   SHANE HD, 1969, ANN MATH STAT, V40, P2101, DOI 10.1214/aoms/1177697288
   Wald A, 1943, T AM MATH SOC, V54, P426, DOI 10.2307/1990256
NR 17
TC 5
Z9 5
U1 1
U2 1
PU INST MATHEMATICAL STATISTICS
PI HAYWARD
PA IMS BUSINESS OFFICE-SUITE 7, 3401 INVESTMENT BLVD, HAYWARD, CA 94545
SN 0003-4851
J9 ANN MATH STAT
PY 1971
VL 42
IS 3
BP 1104
EP &
DI 10.1214/aoms/1177693341
PG 0
WC Mathematics; Statistics & Probability
SC Mathematics
GA J6804
UT WOS:A1971J680400024
ER

PT J
AU SCOTT, A
AF SCOTT, A
TI LARGE-SAMPLE POSTERIOR DISTRIBUTIONS FOR FINITE POPULATIONS
SO ANNALS OF MATHEMATICAL STATISTICS
LA English
DT Note
CR Erdos P., 1959, PUBL MATH I HUNGARIA, V4, P49
   ERICSON WA, 1969, J ROY STAT SOC B, V31, P195
   GODAMBE VP, 1955, J ROY STAT SOC B MET, V17, P267
   Hajeck J., 1959, CASOPIS PRO PESTOVAN, V84, P387
   Hajek J., 1960, PUBL MATH I HUNG, V5, P361
   Hald A, 1960, TECHNOMETRICS, V2, P275, DOI 10.1080/00401706.1960.10489900
   HARTLEY HO, 1968, BIOMETRIKA, V55, P547, DOI 10.2307/2334260
   MADOW WG, 1948, ANN MATH STAT, V19, P535, DOI 10.1214/aoms/1177730149
   POLYA G, 1931, ANN I H POINCARE, P117
NR 9
TC 5
Z9 5
U1 0
U2 0
PU INST MATHEMATICAL STATISTICS
PI HAYWARD
PA IMS BUSINESS OFFICE-SUITE 7, 3401 INVESTMENT BLVD, HAYWARD, CA 94545
SN 0003-4851
J9 ANN MATH STAT
PY 1971
VL 42
IS 3
BP 1113
EP &
DI 10.1214/aoms/1177693342
PG 0
WC Mathematics; Statistics & Probability
SC Mathematics
GA J6804
UT WOS:A1971J680400025
ER

PT J
AU NEMETH, E
AF NEMETH, E
TI NEW FAMILY OF BIBDS
SO ANNALS OF MATHEMATICAL STATISTICS
LA English
DT Note
CR Hall Jr M., 1967, COMBINATORIAL THEORY
   MULLIN RC, 1968, SANKHYA A, V30, P91
   SPROTT DA, 1954, CAN J MATH, V6, P341, DOI 10.4153/CJM-1954-032-6
NR 3
TC 0
Z9 0
U1 0
U2 0
PU INST MATHEMATICAL STATISTICS
PI HAYWARD
PA IMS BUSINESS OFFICE-SUITE 7, 3401 INVESTMENT BLVD, HAYWARD, CA 94545
SN 0003-4851
J9 ANN MATH STAT
PY 1971
VL 42
IS 3
BP 1118
EP &
DI 10.1214/aoms/1177693343
PG 0
WC Mathematics; Statistics & Probability
SC Mathematics
GA J6804
UT WOS:A1971J680400026
ER

PT J
AU DURHAM, SD
AF DURHAM, SD
TI PROBLEM CONCERNING GENERALIZED AGE-DEPENDENT BRANCHING PROCESSES WITH
   IMMIGRATION
SO ANNALS OF MATHEMATICAL STATISTICS
LA English
DT Note
CR CRUMP K, 1969, J MATH ANAL APPL, V25, P8, DOI 10.1016/0022-247X(69)90210-8
   CRUMP KS, 1968, J MATH ANAL APPL, V24, P494, DOI 10.1016/0022-247X(68)90005-X
   DURHAM SD, 1971, J APPL PROBAB, V8, P1, DOI 10.2307/3211833
   FELLER W, 1966, INTRODUCTION PROBABI, V2
   FOSTER JH, 1969, THESIS U WISCONSIN
   Harris T., 1963, THEORY BRANCHING PRO
   KENDALL DG, 1948, ANN MATH STAT, V19, P1, DOI 10.1214/aoms/1177730285
   RYAN TA, 1968, THESIS CORNELL U
   Sevast'yanov B. A., 1957, THEOR PROBAB APPL, V2, P321, DOI 10.1137/1102022
NR 9
TC 1
Z9 1
U1 0
U2 0
PU INST MATHEMATICAL STATISTICS
PI HAYWARD
PA IMS BUSINESS OFFICE-SUITE 7, 3401 INVESTMENT BLVD, HAYWARD, CA 94545
SN 0003-4851
J9 ANN MATH STAT
PY 1971
VL 42
IS 3
BP 1121
EP &
DI 10.1214/aoms/1177693344
PG 0
WC Mathematics; Statistics & Probability
SC Mathematics
GA J6804
UT WOS:A1971J680400027
ER

PT J
AU ERICKSON, RV
AF ERICKSON, RV
TI EXISTENCE OF ABSOLUTE MOMENTS FOR EXTINCTION TIME OF A GALTON-WATSON
   PROCESS
SO ANNALS OF MATHEMATICAL STATISTICS
LA English
DT Note
CR ATHREYA KB, 1969, ANN MATH STAT, V40, P743, DOI 10.1214/aoms/1177697585
   FELLER W, 1966, INTRODUCTION PROBABI, V2
   HARKNESS WL, 1969, PAC J MATH, V31, P403
   KESTEN H, 1966, THEOR PROBAB APPL+, V11, P513, DOI 10.1137/1111059
   Loeve M., 1963, PROBABILITY THEORY
   SENETA E, 1967, J APPL PROBAB, V4, P489, DOI 10.2307/3212216
   SZEKERES G, 1960, ACTA MATH, V100, P203
NR 7
TC 0
Z9 0
U1 0
U2 0
PU INST MATHEMATICAL STATISTICS
PI HAYWARD
PA IMS BUSINESS OFFICE-SUITE 7, 3401 INVESTMENT BLVD, HAYWARD, CA 94545
SN 0003-4851
J9 ANN MATH STAT
PY 1971
VL 42
IS 3
BP 1124
EP &
DI 10.1214/aoms/1177693345
PG 0
WC Mathematics; Statistics & Probability
SC Mathematics
GA J6804
UT WOS:A1971J680400028
ER

PT J
AU GRIEGO, RJ
   HEATH, D
   RUIZMONC.A
AF GRIEGO, RJ
   HEATH, D
   RUIZMONC.A
TI ALMOST SURE CONVERGENCE OF UNIFORM TRANSPORT PROCESSES TO BROWNIAN
   MOTION
SO ANNALS OF MATHEMATICAL STATISTICS
LA English
DT Note
CR FELLER W, 1966, INTRODUCTION PROBABI, V2
   PINSKY M, 1968, Z WAHRSCHEINLICHKEIT, V9, P101, DOI 10.1007/BF01851001
   ROOT DH, 1969, ANN MATH STAT, V40, P715, DOI 10.1214/aoms/1177697749
   Skorokhod A. V., 1965, STUDIES THEORY RANDO
   WATANABE T, 1968, NAGOYA MATH J, V32, P297
NR 5
TC 9
Z9 9
U1 0
U2 0
PU INST MATHEMATICAL STATISTICS
PI HAYWARD
PA IMS BUSINESS OFFICE-SUITE 7, 3401 INVESTMENT BLVD, HAYWARD, CA 94545
SN 0003-4851
J9 ANN MATH STAT
PY 1971
VL 42
IS 3
BP 1129
EP &
DI 10.1214/aoms/1177693346
PG 0
WC Mathematics; Statistics & Probability
SC Mathematics
GA J6804
UT WOS:A1971J680400029
ER

PT J
AU SEN, PK
AF SEN, PK
TI HAJEK-RENYI TYPE INEQUALITY FOR STOCHASTIC VECTORS WITH APPLICATIONS TO
   SIMULTANEOUS CONFIDENCE REGIONS
SO ANNALS OF MATHEMATICAL STATISTICS
LA English
DT Note
CR ANSCOMBE FJ, 1952, P CAMB PHILOS SOC, V48, P600
   BIRNBAUM ZW, 1961, ANN MATH STAT, V32, P687, DOI 10.1214/aoms/1177704964
   Chow YS, 1960, P AM MATH SOC, V11, P107, DOI 10.2307/2032726
   Hajek J., 1955, ACTA MATH ACAD SCI H, V6, P281, DOI 10.1007/BF02024392
   Karlin S., 1966, TCHEBYCHEFF SYSTEMS
   MUDHOLKAR GS, 1967, ANN MATH STAT, V38, P393, DOI 10.1214/aoms/1177698954
   SCHEFFE H, 1959, ANALYSIS VARIANCE
NR 7
TC 4
Z9 4
U1 0
U2 0
PU INST MATHEMATICAL STATISTICS
PI HAYWARD
PA IMS BUSINESS OFFICE-SUITE 7, 3401 INVESTMENT BLVD, HAYWARD, CA 94545
SN 0003-4851
J9 ANN MATH STAT
PY 1971
VL 42
IS 3
BP 1132
EP &
DI 10.1214/aoms/1177693347
PG 0
WC Mathematics; Statistics & Probability
SC Mathematics
GA J6804
UT WOS:A1971J680400030
ER

PT J
AU BERK, RH
AF BERK, RH
TI CORRECTION
SO ANNALS OF MATHEMATICAL STATISTICS
LA English
DT Correction, Addition
CR BERK RH, 1970, ANN MATH STAT, V40, P1492
NR 1
TC 1
Z9 1
U1 0
U2 0
PU INST MATHEMATICAL STATISTICS
PI HAYWARD
PA IMS BUSINESS OFFICE-SUITE 7, 3401 INVESTMENT BLVD, HAYWARD, CA 94545
SN 0003-4851
J9 ANN MATH STAT
PY 1971
VL 42
IS 3
BP 1135
EP &
DI 10.1214/aoms/1177693348
PG 0
WC Mathematics; Statistics & Probability
SC Mathematics
GA J6804
UT WOS:A1971J680400031
ER

PT J
AU SAVAGE, IR
AF SAVAGE, IR
TI ORDER STATISTICS - DAVID,HA
SO ANNALS OF MATHEMATICAL STATISTICS
LA English
DT Book Review
C1 CTR ADV STUDY BEHAV SCI,STANFORD,CA.
CR DAVID HA, 1970, ORDER STATISTICS
NR 1
TC 0
Z9 0
U1 0
U2 0
PU INST MATHEMATICAL STATISTICS
PI HAYWARD
PA IMS BUSINESS OFFICE-SUITE 7, 3401 INVESTMENT BLVD, HAYWARD, CA 94545
SN 0003-4851
J9 ANN MATH STAT
PY 1971
VL 42
IS 3
BP 1138
EP 1138
PG 1
WC Mathematics; Statistics & Probability
SC Mathematics
GA J6804
UT WOS:A1971J680400071
ER

PT J
AU WATSON, GS
AF WATSON, GS
TI ADVANCED THEORY OF STATISTICS .3. - KENDALL,MG AND STUART,A
SO ANNALS OF MATHEMATICAL STATISTICS
LA English
DT Book Review
C1 PRINCETON UNIV,PRINCETON,NJ.
CR KENDALL MG, 1968, ADVANCED THEORY STAT
NR 1
TC 1
Z9 1
U1 0
U2 0
PU INST MATHEMATICAL STATISTICS
PI HAYWARD
PA IMS BUSINESS OFFICE-SUITE 7, 3401 INVESTMENT BLVD, HAYWARD, CA 94545
SN 0003-4851
J9 ANN MATH STAT
PY 1971
VL 42
IS 3
BP 1138
EP 1140
DI 10.1214/aoms/1177693350
PG 3
WC Mathematics; Statistics & Probability
SC Mathematics
GA J6804
UT WOS:A1971J680400072
ER

PT J
AU BROCKWEL.P
AF BROCKWEL.P
TI INTRODUCTION TO STOCHASTIC PROCESSES IN BIOSTATISTICS - CHIANG,CL
SO ANNALS OF MATHEMATICAL STATISTICS
LA English
DT Book Review
C1 MICHIGAN STATE UNIV,E LANSING,MI.
CR Chiang C., 1968, INTRO STOCHASTIC PRO
NR 1
TC 0
Z9 0
U1 1
U2 1
PU INST MATHEMATICAL STATISTICS
PI HAYWARD
PA IMS BUSINESS OFFICE-SUITE 7, 3401 INVESTMENT BLVD, HAYWARD, CA 94545
SN 0003-4851
J9 ANN MATH STAT
PY 1971
VL 42
IS 3
BP 1140
EP 1141
DI 10.1214/aoms/1177693351
PG 2
WC Mathematics; Statistics & Probability
SC Mathematics
GA J6804
UT WOS:A1971J680400073
ER

PT J
AU JUOLA, RC
AF JUOLA, RC
TI MAXIMAL RESOLUTION V FRACTIONS OF 2N DESIGNS HAVING 2Q RUNS
SO ANNALS OF MATHEMATICAL STATISTICS
LA English
DT Meeting Abstract
CR DRAPER, 1968, ANN MATH STATIST, V39, P246
NR 1
TC 0
Z9 0
U1 0
U2 0
PU INST MATHEMATICAL STATISTICS
PI HAYWARD
PA IMS BUSINESS OFFICE-SUITE 7, 3401 INVESTMENT BLVD, HAYWARD, CA 94545
SN 0003-4851
J9 ANN MATH STAT
PY 1971
VL 42
IS 3
BP 1142
EP &
PG 0
WC Mathematics; Statistics & Probability
SC Mathematics
GA J6804
UT WOS:A1971J680400034
ER

PT J
AU LORBER, HW
AF LORBER, HW
TI NONHOMOGENEOUS FILTERED POISSON PROCESSES IN META DIMENSIONAL EUCLIDEAN
   SPACE
SO ANNALS OF MATHEMATICAL STATISTICS
LA English
DT Meeting Abstract
NR 0
TC 0
Z9 0
U1 0
U2 0
PU INST MATHEMATICAL STATISTICS
PI HAYWARD
PA IMS BUSINESS OFFICE-SUITE 7, 3401 INVESTMENT BLVD, HAYWARD, CA 94545
SN 0003-4851
J9 ANN MATH STAT
PY 1971
VL 42
IS 3
BP 1142
EP &
PG 0
WC Mathematics; Statistics & Probability
SC Mathematics
GA J6804
UT WOS:A1971J680400035
ER

PT J
AU TOMKINS, RJ
AF TOMKINS, RJ
TI SOME PROBABILITY INEQUALITIES RELATED TO LAW OF LARGE NUMBERS
SO ANNALS OF MATHEMATICAL STATISTICS
LA English
DT Meeting Abstract
NR 0
TC 0
Z9 0
U1 0
U2 0
PU INST MATHEMATICAL STATISTICS
PI HAYWARD
PA IMS BUSINESS OFFICE-SUITE 7, 3401 INVESTMENT BLVD, HAYWARD, CA 94545
SN 0003-4851
J9 ANN MATH STAT
PY 1971
VL 42
IS 3
BP 1142
EP &
PG 0
WC Mathematics; Statistics & Probability
SC Mathematics
GA J6804
UT WOS:A1971J680400032
ER

PT J
AU WALSH, JE
   KELLEHER, GJ
AF WALSH, JE
   KELLEHER, GJ
TI CONVERGENCE TO RANDOM BINARY DIGITS WHEN NONE OF INITIAL DATA
   NECESSARILY INDEPENDENT
SO ANNALS OF MATHEMATICAL STATISTICS
LA English
DT Meeting Abstract
NR 0
TC 0
Z9 0
U1 0
U2 0
PU INST MATHEMATICAL STATISTICS
PI HAYWARD
PA IMS BUSINESS OFFICE-SUITE 7, 3401 INVESTMENT BLVD, HAYWARD, CA 94545
SN 0003-4851
J9 ANN MATH STAT
PY 1971
VL 42
IS 3
BP 1142
EP &
PG 0
WC Mathematics; Statistics & Probability
SC Mathematics
GA J6804
UT WOS:A1971J680400033
ER

PT J
AU BRUCKNER, LA
AF BRUCKNER, LA
TI MOVING AVERAGES OF HOMOGENEOUS RANDOM FIELDS
SO ANNALS OF MATHEMATICAL STATISTICS
LA English
DT Meeting Abstract
NR 0
TC 0
Z9 0
U1 0
U2 0
PU INST MATHEMATICAL STATISTICS
PI HAYWARD
PA IMS BUSINESS OFFICE-SUITE 7, 3401 INVESTMENT BLVD, HAYWARD, CA 94545
SN 0003-4851
J9 ANN MATH STAT
PY 1971
VL 42
IS 3
BP 1143
EP &
PG 0
WC Mathematics; Statistics & Probability
SC Mathematics
GA J6804
UT WOS:A1971J680400036
ER

PT J
AU FOSTER, J
   WILLIAMS.JA
AF FOSTER, J
   WILLIAMS.JA
TI LIMIT THEOREMS FOR GALTON-WATSON PROCESS WITH TIME-DEPENDENT IMMIGRATION
SO ANNALS OF MATHEMATICAL STATISTICS
LA English
DT Meeting Abstract
NR 0
TC 0
Z9 0
U1 0
U2 0
PU INST MATHEMATICAL STATISTICS
PI HAYWARD
PA IMS BUSINESS OFFICE-SUITE 7, 3401 INVESTMENT BLVD, HAYWARD, CA 94545
SN 0003-4851
J9 ANN MATH STAT
PY 1971
VL 42
IS 3
BP 1143
EP &
PG 0
WC Mathematics; Statistics & Probability
SC Mathematics
GA J6804
UT WOS:A1971J680400038
ER

PT J
AU GRAY, HL
   WATKINS, TA
   ADAMS, JE
AF GRAY, HL
   WATKINS, TA
   ADAMS, JE
TI JACKKNIFING STOCHASTIC PROCESSES
SO ANNALS OF MATHEMATICAL STATISTICS
LA English
DT Meeting Abstract
NR 0
TC 0
Z9 0
U1 0
U2 0
PU INST MATHEMATICAL STATISTICS
PI HAYWARD
PA IMS BUSINESS OFFICE-SUITE 7, 3401 INVESTMENT BLVD, HAYWARD, CA 94545
SN 0003-4851
J9 ANN MATH STAT
PY 1971
VL 42
IS 3
BP 1143
EP &
PG 0
WC Mathematics; Statistics & Probability
SC Mathematics
GA J6804
UT WOS:A1971J680400037
ER

PT J
AU GUPTA, AK
AF GUPTA, AK
TI STOCHASTIC INEQUALITY FOR WILKS STATISTIC
SO ANNALS OF MATHEMATICAL STATISTICS
LA English
DT Meeting Abstract
CR ASOH, ANN I STATIST MATH, V21, P67
NR 1
TC 0
Z9 0
U1 0
U2 0
PU INST MATHEMATICAL STATISTICS
PI HAYWARD
PA IMS BUSINESS OFFICE-SUITE 7, 3401 INVESTMENT BLVD, HAYWARD, CA 94545
SN 0003-4851
J9 ANN MATH STAT
PY 1971
VL 42
IS 3
BP 1143
EP &
PG 0
WC Mathematics; Statistics & Probability
SC Mathematics
GA J6804
UT WOS:A1971J680400039
ER

PT J
AU RIZVI, MH
AF RIZVI, MH
TI SELECTION OF BEST SET OF PREDICTOR VARIATES AND SIMULTANEOUS INTERVAL
   ESTIMATION OF LARGEST MULTIPLE CORRELATION COEFFICIENT
SO ANNALS OF MATHEMATICAL STATISTICS
LA English
DT Meeting Abstract
NR 0
TC 0
Z9 0
U1 0
U2 0
PU INST MATHEMATICAL STATISTICS
PI HAYWARD
PA IMS BUSINESS OFFICE-SUITE 7, 3401 INVESTMENT BLVD, HAYWARD, CA 94545
SN 0003-4851
J9 ANN MATH STAT
PY 1971
VL 42
IS 3
BP 1144
EP &
PG 0
WC Mathematics; Statistics & Probability
SC Mathematics
GA J6804
UT WOS:A1971J680400041
ER

PT J
AU SHARPE, MJ
AF SHARPE, MJ
TI EXACT MULTIPLICATIVE FUNCTIONALS IN DUALITY
SO ANNALS OF MATHEMATICAL STATISTICS
LA English
DT Meeting Abstract
CR GETOOR, 1970, B AM MATH SOC, V76, P1053
NR 1
TC 0
Z9 0
U1 0
U2 0
PU INST MATHEMATICAL STATISTICS
PI HAYWARD
PA IMS BUSINESS OFFICE-SUITE 7, 3401 INVESTMENT BLVD, HAYWARD, CA 94545
SN 0003-4851
J9 ANN MATH STAT
PY 1971
VL 42
IS 3
BP 1144
EP &
PG 0
WC Mathematics; Statistics & Probability
SC Mathematics
GA J6804
UT WOS:A1971J680400040
ER

PT J
AU WAGNER, TJ
AF WAGNER, TJ
TI ESTIMATION OF MEAN WITH FINITE MEMORY
SO ANNALS OF MATHEMATICAL STATISTICS
LA English
DT Meeting Abstract
CR COVER, ANN MATH STATIST, V40, P828
NR 1
TC 0
Z9 0
U1 0
U2 0
PU INST MATHEMATICAL STATISTICS
PI HAYWARD
PA IMS BUSINESS OFFICE-SUITE 7, 3401 INVESTMENT BLVD, HAYWARD, CA 94545
SN 0003-4851
J9 ANN MATH STAT
PY 1971
VL 42
IS 3
BP 1144
EP &
PG 0
WC Mathematics; Statistics & Probability
SC Mathematics
GA J6804
UT WOS:A1971J680400042
ER

PT J
AU BIRNBAUM, ZW
   VINCZE, I
AF BIRNBAUM, ZW
   VINCZE, I
TI LIMITING DISTRIBUTIONS OF STATISTICS SIMILAR TO STUDENTS T
SO ANNALS OF MATHEMATICAL STATISTICS
LA English
DT Meeting Abstract
NR 0
TC 0
Z9 0
U1 0
U2 0
PU INST MATHEMATICAL STATISTICS
PI HAYWARD
PA IMS BUSINESS OFFICE-SUITE 7, 3401 INVESTMENT BLVD, HAYWARD, CA 94545
SN 0003-4851
J9 ANN MATH STAT
PY 1971
VL 42
IS 3
BP 1145
EP &
PG 0
WC Mathematics; Statistics & Probability
SC Mathematics
GA J6804
UT WOS:A1971J680400043
ER

PT J
AU DAVIS, HT
AF DAVIS, HT
TI LEAST SQUARE ESTIMATION FOR CONTINUOUS TIME AUTOREGRESSIVE TIME SERIES
SO ANNALS OF MATHEMATICAL STATISTICS
LA English
DT Meeting Abstract
NR 0
TC 0
Z9 0
U1 0
U2 0
PU INST MATHEMATICAL STATISTICS
PI HAYWARD
PA IMS BUSINESS OFFICE-SUITE 7, 3401 INVESTMENT BLVD, HAYWARD, CA 94545
SN 0003-4851
J9 ANN MATH STAT
PY 1971
VL 42
IS 3
BP 1145
EP &
PG 0
WC Mathematics; Statistics & Probability
SC Mathematics
GA J6804
UT WOS:A1971J680400044
ER

PT J
AU GOLDBERG, MA
AF GOLDBERG, MA
TI INITIAL VALUE METHOD FOR COMPUTATION OF CHARACTERISTIC VALUES AND
   FUNCTIONS OF SYMMETRIC INTEGRAL OPERATOR
SO ANNALS OF MATHEMATICAL STATISTICS
LA English
DT Meeting Abstract
NR 0
TC 0
Z9 0
U1 0
U2 0
PU INST MATHEMATICAL STATISTICS
PI HAYWARD
PA IMS BUSINESS OFFICE-SUITE 7, 3401 INVESTMENT BLVD, HAYWARD, CA 94545
SN 0003-4851
J9 ANN MATH STAT
PY 1971
VL 42
IS 3
BP 1145
EP &
PG 0
WC Mathematics; Statistics & Probability
SC Mathematics
GA J6804
UT WOS:A1971J680400045
ER

PT J
AU DAVIS, RC
AF DAVIS, RC
TI OPTIMAL RADAR SIGNAL DESIGN FOR TARGET DETECTION IN CLUTTER ENVIRONMENT
SO ANNALS OF MATHEMATICAL STATISTICS
LA English
DT Meeting Abstract
NR 0
TC 0
Z9 0
U1 0
U2 0
PU INST MATHEMATICAL STATISTICS
PI HAYWARD
PA IMS BUSINESS OFFICE-SUITE 7, 3401 INVESTMENT BLVD, HAYWARD, CA 94545
SN 0003-4851
J9 ANN MATH STAT
PY 1971
VL 42
IS 3
BP 1146
EP &
PG 0
WC Mathematics; Statistics & Probability
SC Mathematics
GA J6804
UT WOS:A1971J680400046
ER

PT J
AU READ, RR
AF READ, RR
TI ASYMPTOTIC INADMISSIBILITY OF SAMPLE DISTRIBUTION FUNCTION
SO ANNALS OF MATHEMATICAL STATISTICS
LA English
DT Meeting Abstract
NR 0
TC 0
Z9 0
U1 0
U2 0
PU INST MATHEMATICAL STATISTICS
PI HAYWARD
PA IMS BUSINESS OFFICE-SUITE 7, 3401 INVESTMENT BLVD, HAYWARD, CA 94545
SN 0003-4851
J9 ANN MATH STAT
PY 1971
VL 42
IS 3
BP 1146
EP &
PG 0
WC Mathematics; Statistics & Probability
SC Mathematics
GA J6804
UT WOS:A1971J680400048
ER

PT J
AU SCHUCANY, WR
AF SCHUCANY, WR
TI RANK TEST FOR 2 GROUP CONCORDANCE
SO ANNALS OF MATHEMATICAL STATISTICS
LA English
DT Meeting Abstract
NR 0
TC 4
Z9 4
U1 0
U2 0
PU INST MATHEMATICAL STATISTICS
PI HAYWARD
PA IMS BUSINESS OFFICE-SUITE 7, 3401 INVESTMENT BLVD, HAYWARD, CA 94545
SN 0003-4851
J9 ANN MATH STAT
PY 1971
VL 42
IS 3
BP 1146
EP &
PG 0
WC Mathematics; Statistics & Probability
SC Mathematics
GA J6804
UT WOS:A1971J680400047
ER

PT J
AU VANDERME.EC
AF VANDERME.EC
TI DIFFERENCE BETWEEN PAIRWISE AND MUTUAL INDEPENDENCE
SO ANNALS OF MATHEMATICAL STATISTICS
LA English
DT Meeting Abstract
NR 0
TC 0
Z9 0
U1 0
U2 0
PU INST MATHEMATICAL STATISTICS
PI HAYWARD
PA IMS BUSINESS OFFICE-SUITE 7, 3401 INVESTMENT BLVD, HAYWARD, CA 94545
SN 0003-4851
J9 ANN MATH STAT
PY 1971
VL 42
IS 3
BP 1146
EP &
PG 0
WC Mathematics; Statistics & Probability
SC Mathematics
GA J6804
UT WOS:A1971J680400049
ER

PT J
AU BELL, CB
AF BELL, CB
TI NON-PARAMETRIC THEORY ON ABSTRACT SPACES
SO ANNALS OF MATHEMATICAL STATISTICS
LA English
DT Meeting Abstract
NR 0
TC 0
Z9 0
U1 0
U2 0
PU INST MATHEMATICAL STATISTICS
PI HAYWARD
PA IMS BUSINESS OFFICE-SUITE 7, 3401 INVESTMENT BLVD, HAYWARD, CA 94545
SN 0003-4851
J9 ANN MATH STAT
PY 1971
VL 42
IS 3
BP 1147
EP &
PG 0
WC Mathematics; Statistics & Probability
SC Mathematics
GA J6804
UT WOS:A1971J680400050
ER

PT J
AU LIEBERMA.GJ
AF LIEBERMA.GJ
TI CONFIDENCE INTERVALS FOR INDEPENDENT EXPONENTIAL SERIES SYSTEMS
SO ANNALS OF MATHEMATICAL STATISTICS
LA English
DT Meeting Abstract
NR 0
TC 0
Z9 0
U1 0
U2 0
PU INST MATHEMATICAL STATISTICS
PI HAYWARD
PA IMS BUSINESS OFFICE-SUITE 7, 3401 INVESTMENT BLVD, HAYWARD, CA 94545
SN 0003-4851
J9 ANN MATH STAT
PY 1971
VL 42
IS 3
BP 1147
EP &
PG 0
WC Mathematics; Statistics & Probability
SC Mathematics
GA J6804
UT WOS:A1971J680400051
ER

PT J
AU ODEH, RE
AF ODEH, RE
TI JONCKHEERES K-SAMPLE TEST AGAINST ORDERED ALTERNATIVES
SO ANNALS OF MATHEMATICAL STATISTICS
LA English
DT Meeting Abstract
CR JONCKHEERE AR, 1954, BIOMETRIKA, V41, P133, DOI 10.2307/2333011
NR 1
TC 0
Z9 0
U1 0
U2 0
PU INST MATHEMATICAL STATISTICS
PI HAYWARD
PA IMS BUSINESS OFFICE-SUITE 7, 3401 INVESTMENT BLVD, HAYWARD, CA 94545
SN 0003-4851
J9 ANN MATH STAT
PY 1971
VL 42
IS 3
BP 1147
EP &
PG 0
WC Mathematics; Statistics & Probability
SC Mathematics
GA J6804
UT WOS:A1971J680400052
ER

PT J
AU IGLEHART, DL
AF IGLEHART, DL
TI EXTREME VALUES IN GI/G/1 QUEUE
SO ANNALS OF MATHEMATICAL STATISTICS
LA English
DT Meeting Abstract
NR 0
TC 0
Z9 0
U1 0
U2 0
PU INST MATHEMATICAL STATISTICS
PI HAYWARD
PA IMS BUSINESS OFFICE-SUITE 7, 3401 INVESTMENT BLVD, HAYWARD, CA 94545
SN 0003-4851
J9 ANN MATH STAT
PY 1971
VL 42
IS 3
BP 1148
EP &
PG 0
WC Mathematics; Statistics & Probability
SC Mathematics
GA J6804
UT WOS:A1971J680400053
ER

PT J
AU KRISHNAI.PR
   CHANG, TC
AF KRISHNAI.PR
   CHANG, TC
TI EXACT DISTRIBUTIONS OF TRACES OF S1(S1+S2) AND S1S2-1
SO ANNALS OF MATHEMATICAL STATISTICS
LA English
DT Meeting Abstract
NR 0
TC 0
Z9 0
U1 0
U2 0
PU INST MATHEMATICAL STATISTICS
PI HAYWARD
PA IMS BUSINESS OFFICE-SUITE 7, 3401 INVESTMENT BLVD, HAYWARD, CA 94545
SN 0003-4851
J9 ANN MATH STAT
PY 1971
VL 42
IS 3
BP 1148
EP &
PG 0
WC Mathematics; Statistics & Probability
SC Mathematics
GA J6804
UT WOS:A1971J680400055
ER

PT J
AU KRISHNAI.PR
   WAIKAR, VB
AF KRISHNAI.PR
   WAIKAR, VB
TI JOINT DISTRIBUTION OF FEW ROOTS OF A CLASS OF RANDOM MATRICES
SO ANNALS OF MATHEMATICAL STATISTICS
LA English
DT Meeting Abstract
NR 0
TC 0
Z9 0
U1 0
U2 0
PU INST MATHEMATICAL STATISTICS
PI HAYWARD
PA IMS BUSINESS OFFICE-SUITE 7, 3401 INVESTMENT BLVD, HAYWARD, CA 94545
SN 0003-4851
J9 ANN MATH STAT
PY 1971
VL 42
IS 3
BP 1148
EP &
PG 0
WC Mathematics; Statistics & Probability
SC Mathematics
GA J6804
UT WOS:A1971J680400056
ER

PT J
AU LEWIS, T
   ANDERSON, D
AF LEWIS, T
   ANDERSON, D
TI BEST LINEAR RECURSIVE ESTIMATION
SO ANNALS OF MATHEMATICAL STATISTICS
LA English
DT Meeting Abstract
NR 0
TC 0
Z9 0
U1 0
U2 0
PU INST MATHEMATICAL STATISTICS
PI HAYWARD
PA IMS BUSINESS OFFICE-SUITE 7, 3401 INVESTMENT BLVD, HAYWARD, CA 94545
SN 0003-4851
J9 ANN MATH STAT
PY 1971
VL 42
IS 3
BP 1148
EP &
PG 0
WC Mathematics; Statistics & Probability
SC Mathematics
GA J6804
UT WOS:A1971J680400054
ER

PT J
AU CHATTOPA.AK
   PILLAI, KCS
AF CHATTOPA.AK
   PILLAI, KCS
TI MAXIMIZATION OF AN INTEGRAL OF A MATRIX FUNCTION OVER GROUP OF
   ORTHOGONAL MATRICES
SO ANNALS OF MATHEMATICAL STATISTICS
LA English
DT Meeting Abstract
CR ANDERSON, 1965, ANN MATH STATIST, V36, P1153
   JAMES AT, 1964, ANN MATH STAT, V35, P475, DOI 10.1214/aoms/1177703550
   LI, 231 PURD U DEP STAT
   LI, 1970, ANN MATH STATIST, V41, P1541
NR 4
TC 0
Z9 0
U1 0
U2 0
PU INST MATHEMATICAL STATISTICS
PI HAYWARD
PA IMS BUSINESS OFFICE-SUITE 7, 3401 INVESTMENT BLVD, HAYWARD, CA 94545
SN 0003-4851
J9 ANN MATH STAT
PY 1971
VL 42
IS 3
BP 1149
EP &
PG 0
WC Mathematics; Statistics & Probability
SC Mathematics
GA J6804
UT WOS:A1971J680400060
ER

PT J
AU HOYT, JP
AF HOYT, JP
TI GENERATING FUNCTIONS IN ELEMENTARY PROBABILITY THEORY
SO ANNALS OF MATHEMATICAL STATISTICS
LA English
DT Meeting Abstract
NR 0
TC 0
Z9 0
U1 0
U2 0
PU INST MATHEMATICAL STATISTICS
PI HAYWARD
PA IMS BUSINESS OFFICE-SUITE 7, 3401 INVESTMENT BLVD, HAYWARD, CA 94545
SN 0003-4851
J9 ANN MATH STAT
PY 1971
VL 42
IS 3
BP 1149
EP &
PG 0
WC Mathematics; Statistics & Probability
SC Mathematics
GA J6804
UT WOS:A1971J680400057
ER

PT J
AU RASTOGI, SC
   ROHATGI, VK
AF RASTOGI, SC
   ROHATGI, VK
TI STATISTIC FOR TESTING CORRELATION IN A MULTINORMAL POPULATION
SO ANNALS OF MATHEMATICAL STATISTICS
LA English
DT Meeting Abstract
NR 0
TC 0
Z9 0
U1 0
U2 0
PU INST MATHEMATICAL STATISTICS
PI HAYWARD
PA IMS BUSINESS OFFICE-SUITE 7, 3401 INVESTMENT BLVD, HAYWARD, CA 94545
SN 0003-4851
J9 ANN MATH STAT
PY 1971
VL 42
IS 3
BP 1149
EP &
PG 0
WC Mathematics; Statistics & Probability
SC Mathematics
GA J6804
UT WOS:A1971J680400058
ER

PT J
AU STROUD, TWF
AF STROUD, TWF
TI OBTAINING LARGE-SAMPLE TESTS FROM ASYMPTOTICALLY NORMAL ESTIMATORS
SO ANNALS OF MATHEMATICAL STATISTICS
LA English
DT Meeting Abstract
NR 0
TC 0
Z9 0
U1 0
U2 0
PU INST MATHEMATICAL STATISTICS
PI HAYWARD
PA IMS BUSINESS OFFICE-SUITE 7, 3401 INVESTMENT BLVD, HAYWARD, CA 94545
SN 0003-4851
J9 ANN MATH STAT
PY 1971
VL 42
IS 3
BP 1149
EP &
PG 0
WC Mathematics; Statistics & Probability
SC Mathematics
GA J6804
UT WOS:A1971J680400059
ER

PT J
AU GULATI, CM
AF GULATI, CM
TI OPTIMAL ALLOCATION OF OBSERVATION FOR SELECTING ONE AMONG SEVERAL
   POPULATIONS
SO ANNALS OF MATHEMATICAL STATISTICS
LA English
DT Meeting Abstract
NR 0
TC 0
Z9 0
U1 0
U2 0
PU INST MATHEMATICAL STATISTICS
PI HAYWARD
PA IMS BUSINESS OFFICE-SUITE 7, 3401 INVESTMENT BLVD, HAYWARD, CA 94545
SN 0003-4851
J9 ANN MATH STAT
PY 1971
VL 42
IS 3
BP 1150
EP &
PG 0
WC Mathematics; Statistics & Probability
SC Mathematics
GA J6804
UT WOS:A1971J680400063
ER

PT J
AU JACOBS, DR
   SCHACH, S
AF JACOBS, DR
   SCHACH, S
TI SOME RESULTS ON STOCHASTICALLY ORDERED QUEUEING SYSTEMS
SO ANNALS OF MATHEMATICAL STATISTICS
LA English
DT Meeting Abstract
CR DALEY, 1968, THEOR PROBABILITY AP, V13, P356
NR 1
TC 0
Z9 0
U1 0
U2 0
PU INST MATHEMATICAL STATISTICS
PI HAYWARD
PA IMS BUSINESS OFFICE-SUITE 7, 3401 INVESTMENT BLVD, HAYWARD, CA 94545
SN 0003-4851
J9 ANN MATH STAT
PY 1971
VL 42
IS 3
BP 1150
EP &
PG 0
WC Mathematics; Statistics & Probability
SC Mathematics
GA J6804
UT WOS:A1971J680400062
ER

PT J
AU TRYO, PV
   HETTMANS.TP
AF TRYO, PV
   HETTMANS.TP
TI CLASS OF NON-PARAMETRIC TESTS FOR HOMOGENEITY AGAINST ORDERED
   ALTERNATIVES
SO ANNALS OF MATHEMATICAL STATISTICS
LA English
DT Meeting Abstract
CR JONCKHEERE, 1954, BIOMETRIKA, V41, P133
   PURI, 1965, COMM PURE APPL MATH, V18, P51
   1958, ANN MATH STATIST, V29, P972
NR 3
TC 0
Z9 0
U1 0
U2 0
PU INST MATHEMATICAL STATISTICS
PI HAYWARD
PA IMS BUSINESS OFFICE-SUITE 7, 3401 INVESTMENT BLVD, HAYWARD, CA 94545
SN 0003-4851
J9 ANN MATH STAT
PY 1971
VL 42
IS 3
BP 1150
EP &
PG 0
WC Mathematics; Statistics & Probability
SC Mathematics
GA J6804
UT WOS:A1971J680400061
ER

PT J
AU BOGDANOF.DA
   PIERCE, DA
AF BOGDANOF.DA
   PIERCE, DA
TI BAYES-FIDUCIAL INFERENCE FOR WEIBULL DISTRIBUTION
SO ANNALS OF MATHEMATICAL STATISTICS
LA English
DT Meeting Abstract
NR 0
TC 0
Z9 0
U1 0
U2 0
PU INST MATHEMATICAL STATISTICS
PI HAYWARD
PA IMS BUSINESS OFFICE-SUITE 7, 3401 INVESTMENT BLVD, HAYWARD, CA 94545
SN 0003-4851
J9 ANN MATH STAT
PY 1971
VL 42
IS 3
BP 1151
EP &
PG 0
WC Mathematics; Statistics & Probability
SC Mathematics
GA J6804
UT WOS:A1971J680400064
ER

PT J
AU GUTTMAN, I
   PEREYRA, V
AF GUTTMAN, I
   PEREYRA, V
TI LEAST SQUARES ESTIMATION FOR A CLASS OF NON-LINEAR MODELS
SO ANNALS OF MATHEMATICAL STATISTICS
LA English
DT Meeting Abstract
NR 0
TC 0
Z9 0
U1 0
U2 0
PU INST MATHEMATICAL STATISTICS
PI HAYWARD
PA IMS BUSINESS OFFICE-SUITE 7, 3401 INVESTMENT BLVD, HAYWARD, CA 94545
SN 0003-4851
J9 ANN MATH STAT
PY 1971
VL 42
IS 3
BP 1151
EP &
PG 0
WC Mathematics; Statistics & Probability
SC Mathematics
GA J6804
UT WOS:A1971J680400066
ER

PT J
AU JANARDAN, KG
AF JANARDAN, KG
TI CHARACTERIZATION OF MULTINOMIAL AND NEGATIVE MULTINOMIAL DISTRIBUTION
SO ANNALS OF MATHEMATICAL STATISTICS
LA English
DT Meeting Abstract
NR 0
TC 0
Z9 0
U1 0
U2 0
PU INST MATHEMATICAL STATISTICS
PI HAYWARD
PA IMS BUSINESS OFFICE-SUITE 7, 3401 INVESTMENT BLVD, HAYWARD, CA 94545
SN 0003-4851
J9 ANN MATH STAT
PY 1971
VL 42
IS 3
BP 1151
EP &
PG 0
WC Mathematics; Statistics & Probability
SC Mathematics
GA J6804
UT WOS:A1971J680400065
ER

PT J
AU KOUL, HL
AF KOUL, HL
TI ASYMPTOTIC NORMALITY OF H-L ESTIMATOR FOR DEPENDENT DATA
SO ANNALS OF MATHEMATICAL STATISTICS
LA English
DT Meeting Abstract
NR 0
TC 0
Z9 0
U1 0
U2 0
PU INST MATHEMATICAL STATISTICS
PI HAYWARD
PA IMS BUSINESS OFFICE-SUITE 7, 3401 INVESTMENT BLVD, HAYWARD, CA 94545
SN 0003-4851
J9 ANN MATH STAT
PY 1971
VL 42
IS 3
BP 1152
EP &
PG 0
WC Mathematics; Statistics & Probability
SC Mathematics
GA J6804
UT WOS:A1971J680400067
ER

PT J
AU MCDONALD, GC
AF MCDONALD, GC
TI MONOTONICITY IN GAMMA DISTRIBUTIONS
SO ANNALS OF MATHEMATICAL STATISTICS
LA English
DT Meeting Abstract
NR 0
TC 0
Z9 0
U1 0
U2 0
PU INST MATHEMATICAL STATISTICS
PI HAYWARD
PA IMS BUSINESS OFFICE-SUITE 7, 3401 INVESTMENT BLVD, HAYWARD, CA 94545
SN 0003-4851
J9 ANN MATH STAT
PY 1971
VL 42
IS 3
BP 1152
EP &
PG 0
WC Mathematics; Statistics & Probability
SC Mathematics
GA J6804
UT WOS:A1971J680400068
ER

PT J
AU ROHATGI, VK
   RASTOGI, SC
AF ROHATGI, VK
   RASTOGI, SC
TI SEQUENTIAL ESTIMATION OF A LINEAR FUNCTION OF MEAN OF MULTIVARIATE
   NORMAL POPULATION
SO ANNALS OF MATHEMATICAL STATISTICS
LA English
DT Meeting Abstract
CR STARR, P NAT ACAD SCI US, V63, P285
NR 1
TC 0
Z9 0
U1 0
U2 1
PU INST MATHEMATICAL STATISTICS
PI HAYWARD
PA IMS BUSINESS OFFICE-SUITE 7, 3401 INVESTMENT BLVD, HAYWARD, CA 94545
SN 0003-4851
J9 ANN MATH STAT
PY 1971
VL 42
IS 3
BP 1152
EP &
PG 0
WC Mathematics; Statistics & Probability
SC Mathematics
GA J6804
UT WOS:A1971J680400069
ER

PT J
AU GHOSH, JK
   SUBRAMAN.K
AF GHOSH, JK
   SUBRAMAN.K
TI LARGE SAMPLE ESTIMATION OF RESTRICTED PARAMETERS
SO ANNALS OF MATHEMATICAL STATISTICS
LA English
DT Meeting Abstract
CR HAMMERSLEY JM, 1950, J ROY STATIST SOC  B
NR 1
TC 0
Z9 0
U1 0
U2 0
PU INST MATHEMATICAL STATISTICS
PI HAYWARD
PA IMS BUSINESS OFFICE-SUITE 7, 3401 INVESTMENT BLVD, HAYWARD, CA 94545
SN 0003-4851
J9 ANN MATH STAT
PY 1971
VL 42
IS 3
BP 1153
EP &
PG 0
WC Mathematics; Statistics & Probability
SC Mathematics
GA J6804
UT WOS:A1971J680400070
ER

PT J
AU TAKACS, L
AF TAKACS, L
TI COMPARISON OF TWO EMPIRICAL DISTRIBUTION FUNCTIONS
SO ANNALS OF MATHEMATICAL STATISTICS
LA English
DT Article
CR Darling Donald A., 1960, THEOR PROBAB APPL, V5, P356, DOI 10.1137/1105036
   GNEDENKO VB, 1951, DOKL AKAD NAUK SSSR, V80, P525
   GNEDENKO VB, 1961, SELECTED TRANSLATION, V1, P13
   KRORKLUK VS, 1963, SELECTED TRANSLATION, V4, P105
   KRORLYUK VS, 1955, IZV AKAD NAUK SSSR M, V19, P81
   MIHALEVIC VS, 1961, SELECTED TRANSLATION, V1, P63
   MIHALEVIC VS, 1952, DOKL AKAD NAUK SSSR, V85, P485
   NEF W, 1964, GEBIETE, V3, P154
   Smirnov N. V., 1939, B MATH U MOSCOW    I, V2, P3
   TAKACS L, 1964, ANN MATH STAT, V35, P1356, DOI 10.1214/aoms/1177703295
   TAKACS L, 1969, 5 P INT S NONP TECHN, P359
NR 11
TC 3
Z9 3
U1 0
U2 0
PU INST MATHEMATICAL STATISTICS
PI HAYWARD
PA IMS BUSINESS OFFICE-SUITE 7, 3401 INVESTMENT BLVD, HAYWARD, CA 94545
SN 0003-4851
J9 ANN MATH STAT
PY 1971
VL 42
IS 4
BP 1157
EP &
DI 10.1214/aoms/1177693232
PG 0
WC Mathematics; Statistics & Probability
SC Mathematics
GA K2263
UT WOS:A1971K226300001
ER

PT J
AU SRIVASTAVA, JN
   ANDERSON, DA
AF SRIVASTAVA, JN
   ANDERSON, DA
TI FACTORIAL ASSOCIATION SCHEMES WITH APPLICATIONS TO CONSTRUCTION OF
   MULTIDIMENSIONAL PARTIALLY BLANCED DESIGNS
SO ANNALS OF MATHEMATICAL STATISTICS
LA English
DT Article
CR AGRAWAL H, 1966, J AM STAT ASSOC, V61, P1153, DOI 10.2307/2283205
   ANDERSON DA, 1968, THESIS U NEBRASKA
   Bose R. C., 1964, SANKHYA A, V26, P145
   PLACKETT RL, 1946, BIOMETRIKA, V33, P328, DOI 10.2307/2332197
   PLACKETT RL, 1946, BIOMETRIKA, V33, P305, DOI 10.2307/2332195
   POTTHOFF RF, 1964, TECHNOMETRICS, V4, P187
   POTTHOFF RF, 1958, 211 I STAT MIM
   POTTHOFF RF, 1964, TECHNOMETRICS, V4, P361
   SHRIKHANDE SS, 1951, ANN MATH STAT, V22, P235, DOI 10.1214/aoms/1177729643
   SRIVASTAVA JN, 1961, 301 I STAT MIM
   SRVASTAVA JN, 1970, ANN MATH STAT, V41, P1438
NR 11
TC 14
Z9 14
U1 0
U2 0
PU INST MATHEMATICAL STATISTICS
PI CLEVELAND
PA 3163 SOMERSET DR, CLEVELAND, OH 44122 USA
SN 0003-4851
J9 ANN MATH STAT
JI Ann. Math. Stat.
PY 1971
VL 42
IS 4
BP 1167
EP +
DI 10.1214/aoms/1177693233
PG 1
WC Mathematics; Statistics & Probability
SC Mathematics
GA K2263
UT WOS:A1971K226300002
ER

PT J
AU FINE, T
AF FINE, T
TI EXISTENCE OF QUANTITATIVE PROBABILITY
SO ANNALS OF MATHEMATICAL STATISTICS
LA English
DT Article
CR Debreu G., 1954, DECISION PROCESSES, P159
   FINE T, TO BE PUBLSIHED
   LUCE RD, 1967, ANN MATH STATIST, V38, P781
   SAVAGE LJ, 1954, FDN STATISTICS, P32
   VILLEGAS C, 1964, ANN MATH STAT, V35, P1787, DOI 10.1214/aoms/1177700400
NR 5
TC 8
Z9 8
U1 0
U2 0
PU INST MATHEMATICAL STATISTICS
PI HAYWARD
PA IMS BUSINESS OFFICE-SUITE 7, 3401 INVESTMENT BLVD, HAYWARD, CA 94545
SN 0003-4851
J9 ANN MATH STAT
PY 1971
VL 42
IS 4
BP 1182
EP &
DI 10.1214/aoms/1177693234
PG 0
WC Mathematics; Statistics & Probability
SC Mathematics
GA K2263
UT WOS:A1971K226300003
ER

PT J
AU LAND, CE
AF LAND, CE
TI CONFIDENCE INTERVALS FOR LINEAR FUNCTIONS OF NORMAL MEAN AND VARIANCE
SO ANNALS OF MATHEMATICAL STATISTICS
LA English
DT Article
CR ABRAMOVITZ M, 1964, HANDBOOK MATHEMATICA
   Aitchison J., 1957, LOGNORMAL DISTRIBUTI
   HALPERIN M, 1963, J AM STAT ASSOC, V58, P611
   HALPERIN M, 1965, J AM STAT ASSOC, V60, P1191
   HALPERIN M, 1964, J AM STAT ASSOC, V59, P168
   HOYLE MH, 1968, ANN MATH STAT, V39, P1125, DOI 10.1214/aoms/1177698237
   JOHNSON NL, 1963, BIOMETRIKA, V50, P459, DOI 10.2307/2333914
   KANOFSKY P, 1969, SANKHYA            A, V36, P379
   LAND CE, 1968, THESIS U CHICAGO
   LAND CE, 1971, MATHEMATICS COMPUTAT
   LEHMANN EL, 1959, TESTING STATISTICAL
   NEYMAN J, 1960, ANN MATH STAT, V31, P643, DOI 10.1214/aoms/1177705791
   OWEN DB, 1958, TABLES FACTORS ONE S
   PATTERSON RL, 1966, TECHNOMETRICS, V8, P535, DOI 10.2307/1266698
   SCHEFFE H, 1961, B I INT STATIST, V38, P245
   WHEELER DJ, 1959, COMPUT J, V2, P23, DOI 10.1093/comjnl/2.1.23
NR 16
TC 56
Z9 59
U1 0
U2 3
PU INST MATHEMATICAL STATISTICS
PI HAYWARD
PA IMS BUSINESS OFFICE-SUITE 7, 3401 INVESTMENT BLVD, HAYWARD, CA 94545
SN 0003-4851
J9 ANN MATH STAT
PY 1971
VL 42
IS 4
BP 1187
EP &
DI 10.1214/aoms/1177693235
PG 0
WC Mathematics; Statistics & Probability
SC Mathematics
GA K2263
UT WOS:A1971K226300004
ER

PT J
AU BROWN, LD
AF BROWN, LD
TI NON-LOCAL ASYMPTOTIC OPTIMALITY OF APPROPRIATE LIKELIHOOD RATIO TESTS
SO ANNALS OF MATHEMATICAL STATISTICS
LA English
DT Article
CR BAHADUR RR, 1967, ANN MATH STAT, V38, P303, DOI 10.1214/aoms/1177698949
   BAHADUR RR, 1966, 5TH P BERKJ S MATH S, V1, P13
   BAHADUR RR, PRIVATE COMMUNICATIO
   CHERNOFF H, 1952, ANN MATH STAT, V23, P493, DOI 10.1214/aoms/1177729330
   HERR DG, 1967, ANN MATH STAT, V38, P1829, DOI 10.1214/aoms/1177698616
   HODGES JL, 1956, ANN MATH STAT, V27, P324, DOI 10.1214/aoms/1177728261
   HOEFFDING W, 1965, ANN MATH STAT, V36, P369, DOI 10.1214/aoms/1177700150
   Neyman J., 1959, PROBABILITY STATISTI, P213
   NOETHER GE, 1955, ANN MATH STAT, V26, P64, DOI 10.1214/aoms/1177728593
   RAO CR, 1962, J ROY STAT SOC B, V24, P46
NR 10
TC 31
Z9 31
U1 0
U2 0
PU INST MATHEMATICAL STATISTICS
PI HAYWARD
PA IMS BUSINESS OFFICE-SUITE 7, 3401 INVESTMENT BLVD, HAYWARD, CA 94545
SN 0003-4851
J9 ANN MATH STAT
PY 1971
VL 42
IS 4
BP 1206
EP &
DI 10.1214/aoms/1177693236
PG 0
WC Mathematics; Statistics & Probability
SC Mathematics
GA K2263
UT WOS:A1971K226300005
ER

PT J
AU BORWANKER, J
   KALLIANP.G
   RAO, BLSP
AF BORWANKER, J
   KALLIANP.G
   RAO, BLSP
TI BERNSTEIN-VON MISES THEOREM FOR MARKOV PROCESSES
SO ANNALS OF MATHEMATICAL STATISTICS
LA English
DT Article
CR BICKEL PJ, 1969, Z WAHRSCHEINLICHKEIT, V11, P257, DOI 10.1007/BF00531650
   Billingsley P., 1961, P AM MATH SOC, V12, P788, DOI DOI 10.2307/2034876
   BILLINGSLEY P, 1961, STATISTICAL INFERENC
   Cramer H., 1946, MATHEMATICAL METHODS
   LECAM L, 1955, 3 P BERK S MATH STAT
   LeCam L., 1958, PUBL I STAT U PARIS, V7, P18
   ROUSSAS GG, 1965, ANN MATH STAT, V36, P978, DOI 10.1214/aoms/1177700070
   ROUSSAS GG, 1965, GEBIETE, V4, P69
   SCHWARTZ L., 1965, GEBIETE, V4, P10
NR 9
TC 11
Z9 11
U1 0
U2 1
PU INST MATHEMATICAL STATISTICS
PI CLEVELAND
PA 3163 SOMERSET DR, CLEVELAND, OH 44122 USA
SN 0003-4851
J9 ANN MATH STAT
JI Ann. Math. Stat.
PY 1971
VL 42
IS 4
BP 1241
EP +
DI 10.1214/aoms/1177693237
PG 1
WC Mathematics; Statistics & Probability
SC Mathematics
GA K2263
UT WOS:A1971K226300006
ER

PT J
AU GUPTA, AK
AF GUPTA, AK
TI NONCENTRAL DISTRIBUTION OF WILKS STATISTIC IN MANOVA
SO ANNALS OF MATHEMATICAL STATISTICS
LA English
DT Article
CR Anderson TW, 1944, ANN MATH STAT, V15, P345, DOI 10.1214/aoms/1177731206
   ANDERSON TW, 1946, ANN MATH STAT, V17, P409, DOI 10.1214/aoms/1177730882
   CONSUL PC, 1966, ANN MATH STAT, V37, P1319, DOI 10.1214/aoms/1177699276
   DAS GUPTA S., 1964, ANN MATH STAT, V35, P200
   GHOSH MN, 1964, ANN MATH STAT, V35, P789, DOI 10.1214/aoms/1177703578
   GUPTA AK, 1970, 128 DEP MATH REP
   KIEFER J, 1965, ANN MATH STAT, V36, P747, DOI 10.1214/aoms/1177700051
   KSHIRSAGAR AM, 1961, ANN MATH STAT, V32, P104, DOI 10.1214/aoms/1177705144
   Pearson ES, 1933, BIOMETRIKA, V25, P353, DOI 10.2307/2332289
   PILLAI KCS, 1969, BIOMETRIKA, V56, P109, DOI 10.2307/2334695
   POSTEN HO, 1964, BIOMETRIKA, V51, P467, DOI 10.2307/2334153
   ROY J, 1960, SANKHYA, V22, P289
   ROY J, 1966, MULTIVARIATE ANALYSI, P105
   SCHATZOF.M, 1966, BIOMETRIKA, V53, P347, DOI 10.2307/2333641
   SCHATZOFF M, 1964, THESIS HARVARD U
   Wilks SS, 1935, ECONOMETRICA, V3, P309, DOI 10.2307/1905324
NR 16
TC 15
Z9 15
U1 0
U2 0
PU INST MATHEMATICAL STATISTICS
PI HAYWARD
PA IMS BUSINESS OFFICE-SUITE 7, 3401 INVESTMENT BLVD, HAYWARD, CA 94545
SN 0003-4851
J9 ANN MATH STAT
PY 1971
VL 42
IS 4
BP 1254
EP &
DI 10.1214/aoms/1177693238
PG 0
WC Mathematics; Statistics & Probability
SC Mathematics
GA K2263
UT WOS:A1971K226300007
ER

PT J
AU FISHER, L
   VANNESS, JW
AF FISHER, L
   VANNESS, JW
TI TOPOLOGY OF DISTINGUISHABILITY
SO ANNALS OF MATHEMATICAL STATISTICS
LA English
DT Article
CR Ferguson T., 1967, MATHEMATICAL STATIST
   FISHER L, 1969, ANN MATH STAT, V40, P381, DOI 10.1214/aoms/1177697702
   FISHER L, 1969, ANN MATH STAT, V40, P322, DOI 10.1214/aoms/1177697831
   FREEDMAN DA, 1967, ANN MATH STAT, V38, P1666, DOI 10.1214/aoms/1177698601
   Gnedenko B. V., 1954, LIMIT DISTRIBUTIONS
   HOEFFDING W, 1958, ANN MATH STAT, V29, P700, DOI 10.1214/aoms/1177706531
   KELLEY JL, 1955, GENERAL TOPOLOGY
   LECAM L, 1960, ANN MATH STAT, V31, P140, DOI 10.1214/aoms/1177705993
   LEHMANN EL, 1959, TESTING STATISTICAL
   Parthasarathy K. R., 1967, PROBABILITY MEASURES
   Parzen E., 1960, MODERN PROBABILITY T
NR 11
TC 1
Z9 1
U1 0
U2 0
PU INST MATHEMATICAL STATISTICS
PI HAYWARD
PA IMS BUSINESS OFFICE-SUITE 7, 3401 INVESTMENT BLVD, HAYWARD, CA 94545
SN 0003-4851
J9 ANN MATH STAT
PY 1971
VL 42
IS 4
BP 1262
EP &
DI 10.1214/aoms/1177693239
PG 0
WC Mathematics; Statistics & Probability
SC Mathematics
GA K2263
UT WOS:A1971K226300008
ER

PT J
AU KENNEDY, WJ
   BANCROFT, TA
AF KENNEDY, WJ
   BANCROFT, TA
TI MODEL BUILDING FOR PREDICTION IN REGRESSION BASED UPON REPEATED
   SIGNIFICANCE TESTS
SO ANNALS OF MATHEMATICAL STATISTICS
LA English
DT Article
CR ABT K, 1967, METRIKA, V12, P2
   ANDERSON TW, 1962, ANN MATH STATIST, V22, P255
   ANSCOMBE FJ, 1967, J ROY STAT SOC B, V29, P1
   Bancroft TA, 1944, ANN MATH STAT, V15, P190, DOI 10.1214/aoms/1177731284
   BANCROFT TA, 1950, ANN MATH STAT, V21, P142
   BECHHOFER RE, 1951, THESIS COLUMBIA U
   BENNETT BM, 1955, ANN I STATIST MATH, V8, P45
   BOZIVICH H, 1956, ANN MATH STAT, V27, P1017, DOI 10.1214/aoms/1177728071
   DRAPER NR, 1966, APPLIED REGRESSION A
   EFROYMSON MA, 1964, MATHEMATICAL METHODS
   Garside M. J., 1965, APPL STAT, V14, P196, DOI 10.2307/2985341
   GORMAN JW, 1966, TECHNOMETRICS, V8, P27, DOI 10.2307/1266260
   HOCKING RR, 1967, TECHNOMETRICS, V9, P531, DOI 10.2307/1266192
   HUNTSBERGER DV, 1955, ANN MATH STAT, V26, P734, DOI 10.1214/aoms/1177728431
   KENNEDY WJ, 1969, THESIS IOWA STATE U
   KITAGAWA T, 1959, B MATHEMATICAL STATI, V8, P80
   LARSON HJ, 1963, BIOMETRIKA, V50, P391, DOI 10.2307/2333908
   LARSON HJ, 1963, ANN MATH STAT, V34, P462, DOI 10.1214/aoms/1177704158
   MEAD RJ, 1968, THESIS IOWA STATE U
   PAULL AE, 1950, ANN MATH STAT, V21, P539, DOI 10.1214/aoms/1177729750
   SHATZOFF M, 1968, TECHNOMETRICS, V10, P769
   Snedecor G.W., 1967, STATISTICAL METHODS
NR 22
TC 47
Z9 47
U1 0
U2 1
PU INST MATHEMATICAL STATISTICS
PI HAYWARD
PA IMS BUSINESS OFFICE-SUITE 7, 3401 INVESTMENT BLVD, HAYWARD, CA 94545
SN 0003-4851
J9 ANN MATH STAT
PY 1971
VL 42
IS 4
BP 1273
EP &
DI 10.1214/aoms/1177693240
PG 0
WC Mathematics; Statistics & Probability
SC Mathematics
GA K2263
UT WOS:A1971K226300009
ER

PT J
AU NEUHAUS, G
AF NEUHAUS, G
TI WEAK CONVERGENCE OF STOCHASTIC PROCESSES WITH MULTIDIMENSIONAL TIME
   PARAMETER
SO ANNALS OF MATHEMATICAL STATISTICS
LA English
DT Article
CR BICKEL PJ, 1969, ANN MATH STAT, V40, P1, DOI 10.1214/aoms/1177697800
   Billingsley P., 1968, CONVERGENCE PROBABIL
   BLUM JR, 1961, ANN MATH STAT, V32, P485, DOI 10.1214/aoms/1177705055
   DUDLEY RM, 1966, ILLINOIS J MATH, V10, P109
   KENDALL GM, 1963, ADVANCED THEORY STAT, V1
   Kiefer J, 1958, T AM MATH SOC, V87, P173, DOI 10.2307/1993095
   KUELBS J, 1968, ANN MATH STAT, V39, P382, DOI 10.1214/aoms/1177698401
   LECAM L, 1959, REMARQUES VARIABLES
   Parthasarathy K. R., 1967, PROBABILITY MEASURES
   STRAF ML, 1969, THESIS U CHICAGO
   WICHURA MJ, 1969, ANN MATH STAT, V40, P681, DOI 10.1214/aoms/1177697741
   WICHURA MJ, 1968, THESIS COLUMBIA U
   WINKLER W, 1962, 3 T PRAGUE C, P831
NR 13
TC 146
Z9 146
U1 0
U2 0
PU INST MATHEMATICAL STATISTICS
PI HAYWARD
PA IMS BUSINESS OFFICE-SUITE 7, 3401 INVESTMENT BLVD, HAYWARD, CA 94545
SN 0003-4851
J9 ANN MATH STAT
PY 1971
VL 42
IS 4
BP 1285
EP &
DI 10.1214/aoms/1177693241
PG 0
WC Mathematics; Statistics & Probability
SC Mathematics
GA K2263
UT WOS:A1971K226300010
ER

PT J
AU SINGER, B
AF SINGER, B
TI SOME ASYMPTOTIC RESULTS IN A MODEL OF POPULATION GROWTH .2. POSITIVE
   RECURRENT CHAINS
SO ANNALS OF MATHEMATICAL STATISTICS
LA English
DT Article
CR Chung K. L., 1967, MARKOV CHAINS STATIO
   KARLIN S, 1967, J MATH MECH, V17, P373
   KARLIN S., 1957, T AM MATH SOC, V85, P489, DOI [DOI 10.1090/S0002-9947-1957-0091566-1, 10.1090/S0002-9947-1957-0091566-1]
   KARLIN S, 1967, 5TH P BERK S MATH ST, V4, P415
   Karlin S, 1957, T AM MATH SOC, V86, P366, DOI 10.1090/S0002-9947-1957-0094854-8
   SINGER B, 1970, ANN MATH STAT, V41, P115, DOI 10.1214/aoms/1177697193
   SINGER B, TO BE PUBLISHED
NR 7
TC 0
Z9 0
U1 0
U2 0
PU INST MATHEMATICAL STATISTICS
PI HAYWARD
PA IMS BUSINESS OFFICE-SUITE 7, 3401 INVESTMENT BLVD, HAYWARD, CA 94545
SN 0003-4851
J9 ANN MATH STAT
PY 1971
VL 42
IS 4
BP 1296
EP &
DI 10.1214/aoms/1177693242
PG 0
WC Mathematics; Statistics & Probability
SC Mathematics
GA K2263
UT WOS:A1971K226300011
ER

PT J
AU SURYANAR.KV
AF SURYANAR.KV
TI PARTIALLY BALANCED WEIGHING DESIGNS WITH 2 ASSOCIATION CLASSES
SO ANNALS OF MATHEMATICAL STATISTICS
LA English
DT Article
CR BOSE RC, 1953, ANN MATH STAT, V24, P167, DOI 10.1214/aoms/1177729027
   BOSE RC, 1965, J RES NBS B MATH SCI, VB 69, P323, DOI 10.6028/jres.069B.033
   BOSE RC, 1967, J RES NBS B MATH SCI, VB 71, P149, DOI 10.6028/jres.071B.020
   BOSE RC, 1954, 107 NORTH CAR AGR EX
   Bose R. C., 1963, SANKHYA            A, V25, P109
   CLATWORTHY WH, 1956, APPLIED MATH SERIES
   SURYANARAYANA KV, 1969, THESIS U NORTH CAROL
   SURYANARAYANA KV, 1970, 2 P CHAP HILL C COMB
NR 8
TC 0
Z9 0
U1 0
U2 0
PU INST MATHEMATICAL STATISTICS
PI HAYWARD
PA IMS BUSINESS OFFICE-SUITE 7, 3401 INVESTMENT BLVD, HAYWARD, CA 94545
SN 0003-4851
J9 ANN MATH STAT
PY 1971
VL 42
IS 4
BP 1316
EP &
DI 10.1214/aoms/1177693243
PG 0
WC Mathematics; Statistics & Probability
SC Mathematics
GA K2263
UT WOS:A1971K226300012
ER

PT J
AU STAUDTE, RG
AF STAUDTE, RG
TI CHARACTERIZATION OF IVARIANT LOSS FUNCTIONS
SO ANNALS OF MATHEMATICAL STATISTICS
LA English
DT Article
CR BERK RH, 1967, ANN MATH STAT, V38, P1436, DOI 10.1214/aoms/1177698698
   BLACKWELL D, 1956, 3RD P BERK S MATH ST, V2, P1
   Ferguson T., 1967, MATHEMATICAL STATIST
   LEHMANN EL, 1959, TESTING STATISTICAL
NR 4
TC 1
Z9 2
U1 0
U2 1
PU INST MATHEMATICAL STATISTICS
PI HAYWARD
PA IMS BUSINESS OFFICE-SUITE 7, 3401 INVESTMENT BLVD, HAYWARD, CA 94545
SN 0003-4851
J9 ANN MATH STAT
PY 1971
VL 42
IS 4
BP 1322
EP &
DI 10.1214/aoms/1177693244
PG 0
WC Mathematics; Statistics & Probability
SC Mathematics
GA K2263
UT WOS:A1971K226300013
ER

PT J
AU JURECKOVA, J
AF JURECKOVA, J
TI NONPARAMETRIC ESTIMATE OF REGRESSION COEFFICIENTS
SO ANNALS OF MATHEMATICAL STATISTICS
LA English
DT Article
CR ADICHIE JN, 1967, ANN MATH STAT, V38, P894, DOI 10.1214/aoms/1177698883
   Gantmacher F R, 1966, THEORY MATRICES
   GRAYBILL FA, 1961, INTRO LINEAR STATIST, V1
   Hajek J., 1967, THEORY RANK TESTS
   HODGES JL, 1963, ANN MATH STAT, V34, P598, DOI 10.1214/aoms/1177704172
   JURECKOV.J, 1969, ANN MATH STAT, V40, P1889, DOI 10.1214/aoms/1177697273
   JURECKOVA J, 1967, THESIS MATHEMATICAL
   JURECKOVA J, 1969, TO BE PUBLISHED
   KOUL HL, 1969, ANN MATH STAT, V40, P1950, DOI 10.1214/aoms/1177697278
NR 9
TC 154
Z9 155
U1 0
U2 5
PU INST MATHEMATICAL STATISTICS
PI CLEVELAND
PA 3163 SOMERSET DR, CLEVELAND, OH 44122 USA
SN 0003-4851
J9 ANN MATH STAT
JI Ann. Math. Stat.
PY 1971
VL 42
IS 4
BP 1328
EP +
DI 10.1214/aoms/1177693245
PG 1
WC Mathematics; Statistics & Probability
SC Mathematics
GA K2263
UT WOS:A1971K226300014
ER

PT J
AU YARBROUG.C
AF YARBROUG.C
TI SEQUENTIAL DISCRIMINATION WITH LIKELIHOOD RATIOS
SO ANNALS OF MATHEMATICAL STATISTICS
LA English
DT Article
CR ARMITAGE P, 1950, J ROY STAT SOC B, V12, P137
   Barnard G. A., 1947, J AM STAT ASSOC, V42, P658, DOI 10.2307/2280027
   FELLER W., 1966, INTRO PROBABILITY TH, VII
   FREEDMAN DA, 1967, ANN MATH STAT, V38, P1666, DOI 10.1214/aoms/1177698601
   HOEFFDING W, 1958, ANN MATH STAT, V29, P700, DOI 10.1214/aoms/1177706531
   KRAFT C., 1955, U CALIFORNIA PUBL ST, V2, P493
   LECAM L, 1970, ANN MATH STAT, V41, P621, DOI 10.1214/aoms/1177697102
   LECAM L, 1960, ANN MATH STAT, V31, P140, DOI 10.1214/aoms/1177705993
NR 8
TC 0
Z9 0
U1 0
U2 0
PU INST MATHEMATICAL STATISTICS
PI HAYWARD
PA IMS BUSINESS OFFICE-SUITE 7, 3401 INVESTMENT BLVD, HAYWARD, CA 94545
SN 0003-4851
J9 ANN MATH STAT
PY 1971
VL 42
IS 4
BP 1339
EP &
DI 10.1214/aoms/1177693246
PG 0
WC Mathematics; Statistics & Probability
SC Mathematics
GA K2263
UT WOS:A1971K226300015
ER

PT J
AU LIGGETT, WS
AF LIGGETT, WS
TI ASYMPTOTIC OPTIMALITY OF SPECTRAL ANALYSIS FOR TESTING HYPOTHESES ABOUT
   TIME SERIES
SO ANNALS OF MATHEMATICAL STATISTICS
LA English
DT Article
CR ANDERSON TW, 1958, INTRO MULTIVARIATE S, P143
   DELAVALLEE PCJ, 1919, LECONS APPROXIMATION
   GOODMAN NR, 1963, ANN MATH STAT, V34, P152, DOI 10.1214/aoms/1177704250
   GRENANDER U, 1958, TOEPLITZ FORMS THEIR, P76
   Le Cam L., 1953, U CALIFORNIA PUBLICA, V1, P277
   LINDLEY DV, 1960, 4TH P BERK S MATH ST, V1, P453
   Parthasarathy K. R., 1967, PROBABILITY MEASURES
   PARZEN E, 1961, TECHNOMETRICS, V3, P167, DOI 10.2307/1266111
   PARZEN E, 1967, TIME SERIES ANAL PAP, P132
   Taylor A.E., 1958, INTRO FUNCTIONAL ANA
   WAHBA G, 1968, ANN MATH STAT, V39, P1849, DOI 10.1214/aoms/1177698017
NR 11
TC 9
Z9 9
U1 0
U2 0
PU INST MATHEMATICAL STATISTICS
PI HAYWARD
PA IMS BUSINESS OFFICE-SUITE 7, 3401 INVESTMENT BLVD, HAYWARD, CA 94545
SN 0003-4851
J9 ANN MATH STAT
PY 1971
VL 42
IS 4
BP 1348
EP &
DI 10.1214/aoms/1177693247
PG 0
WC Mathematics; Statistics & Probability
SC Mathematics
GA K2263
UT WOS:A1971K226300016
ER

PT J
AU MUSTAFI, CK
AF MUSTAFI, CK
TI CLASS OF BIVARIATE DISTRIBUTIONS FOLLOWING A CERTAIN STOCHASTIC
   STRUCTURE
SO ANNALS OF MATHEMATICAL STATISTICS
LA English
DT Article
CR BOOLE G, CALCULUS FINITE DIFF
   LAHA RG, 1956, ANN MATH STAT, V27, P187, DOI 10.1214/aoms/1177728357
   Levy P, 1937, THEORIE ADDITION VAR
   LUKACS E, 1963, APPLICATIONS CHARACT
   PETROVSKY IG, 1966, LECTURES PARTIAL DIF
NR 5
TC 0
Z9 0
U1 0
U2 0
PU INST MATHEMATICAL STATISTICS
PI HAYWARD
PA IMS BUSINESS OFFICE-SUITE 7, 3401 INVESTMENT BLVD, HAYWARD, CA 94545
SN 0003-4851
J9 ANN MATH STAT
PY 1971
VL 42
IS 4
BP 1359
EP &
DI 10.1214/aoms/1177693248
PG 0
WC Mathematics; Statistics & Probability
SC Mathematics
GA K2263
UT WOS:A1971K226300017
ER

PT J
AU IGLEHART, DL
   WHITT, W
AF IGLEHART, DL
   WHITT, W
TI EQUIVALENCE OF FUNCTIONAL CENTRAL LIMIT THEOREMS FOR COUNTING PROCESSES
   AND ASSOCIATED PARTIAL SUMS
SO ANNALS OF MATHEMATICAL STATISTICS
LA English
DT Article
RI Whitt, Ward/D-5337-2013
OI Whitt, Ward/0000-0003-4298-9964
CR Billingsley P., 1968, CONVERGENCE PROBABIL
   IGLEHART D, 1969, J APPL PROBABILITY, V7, P747
   Iglehart D. L, 1970, ADV APPL PROBAB, V2, P355, DOI 10.2307/1426324
   IGLEHART DL, 1970, ADV APPL PROBAB, V2, P150
   PROHOROV Y. V., 1956, THEOR PROBAB APPL, V1, P157, DOI [DOI 10.1137/1101016, 10.1137/1101016]
   Stone C., 1963, P AM MATH SOC, V14, P694, DOI 10.2307/2034973
   WHITT W, 1970, ANN MATH STAT, V41, P939, DOI 10.1214/aoms/1177696970
   WHITT W, 1970, FUNCTIONAL CENTRAL L
   WHITT W, TO BE PUBLISHED
   WHITT W, 1970, WEAK CONVERGENCE PRO
   WHITT W, 1970, J APPL PROBABILITY, V8, P74
   WHITT W, 1970, ADV APPL PROBAB, V2, P370, DOI 10.2307/1426325
NR 12
TC 34
Z9 34
U1 0
U2 0
PU INST MATHEMATICAL STATISTICS
PI HAYWARD
PA IMS BUSINESS OFFICE-SUITE 7, 3401 INVESTMENT BLVD, HAYWARD, CA 94545
SN 0003-4851
J9 ANN MATH STAT
PY 1971
VL 42
IS 4
BP 1372
EP &
DI 10.1214/aoms/1177693249
PG 0
WC Mathematics; Statistics & Probability
SC Mathematics
GA K2263
UT WOS:A1971K226300018
ER

PT J
AU PORTNOY, S
AF PORTNOY, S
TI FORMAL BAYES ESTIMATION WITH APPLICATION TO A RANDOM EFFECTS MODEL
SO ANNALS OF MATHEMATICAL STATISTICS
LA English
DT Article
CR BOX GEP, 1967, BIOMETRIKA, V54, P109
   BROWN L, 1968, ANN MATH STAT, V39, P29, DOI 10.1214/aoms/1177698503
   FERGUSON T, 1967, MATHEMATICAL STATICS
   HILL BM, 1965, J AM STAT ASSOC, V60, P806, DOI 10.2307/2283247
   JAMES W, 1960, 4TH P BERK S MATH ST, P361
   KIEFER J, 1957, ANN MATH STAT, V28, P573, DOI 10.1214/aoms/1177706874
   KLOTZ JH, 1969, J AM STAT ASSOC, V64, P1383, DOI 10.2307/2286076
   LECAM L, 1965, ANN MATH STATIST, V26, P69
   Pearson K, 1934, TABLES INCOMPLETE BE
   PORTNOY S, 1969, 2 TECH REP DEP STAT
   PORTNOY S, 1969, 13 TECH REP DEP STAT
   SCHEFFE H, 1961, ANALYSIS VARIANCE
   STEIN C, 1955, ANN MATH STAT, V26, P518, DOI 10.1214/aoms/1177728497
   STEIN C, 1964, ANN I STAT MATH, V16, P155, DOI 10.1007/BF02868569
   STEIN C, 1959, ANN MATH STAT, V30, P970, DOI 10.1214/aoms/1177706080
   STEIN C, 1965, BERNOULLI BAYES LAPL
   STONE M, 1965, BIOMETRIKA, V54, P623
   THOMPSON WA, 1962, ANN MATH STAT, V33, P273, DOI 10.1214/aoms/1177704731
   TIAO GC, 1965, BIOMETRIKA, V52, P37, DOI 10.2307/2333810
   ZACKS S, 1970, ANN I STAT MATH, V22, P27, DOI 10.1007/BF02506320
   ZACKS S, 1967, 4 DEP STAT TECHN REP
   ZIDEK JV, 1970, ANN MATH STAT, V41, P446, DOI 10.1214/aoms/1177697084
   ZIDEK JV, 1969, ANN I STAT MATH, V21, P291, DOI 10.1007/BF02532257
NR 23
TC 29
Z9 32
U1 3
U2 5
PU INST MATHEMATICAL STATISTICS
PI HAYWARD
PA IMS BUSINESS OFFICE-SUITE 7, 3401 INVESTMENT BLVD, HAYWARD, CA 94545
SN 0003-4851
J9 ANN MATH STAT
PY 1971
VL 42
IS 4
BP 1379
EP &
DI 10.1214/aoms/1177693250
PG 0
WC Mathematics; Statistics & Probability
SC Mathematics
GA K2263
UT WOS:A1971K226300019
ER

PT J
AU SRIVASTAVA, MS
AF SRIVASTAVA, MS
TI FIXED-WIDTH CONFIDENCE BOUNDS FOR REGRESSION PARAMETERS
SO ANNALS OF MATHEMATICAL STATISTICS
LA English
DT Article
CR ALBERT A, 1966, ANN MATH STAT, V37, P1602, DOI 10.1214/aoms/1177699151
   ANSCOMBE FJ, 1952, P CAMB PHILOS SOC, V48, P600
   CHOW YS, 1965, ANN MATH STAT, V36, P457, DOI 10.1214/aoms/1177700156
   GLESER LJ, 1969, ANN MATH STAT, V40, P935, DOI 10.1214/aoms/1177697598
   GLESER LJ, 1966, ANN MATH STAT, V37, P1053, DOI 10.1214/aoms/1177699388
   GLESER LJ, 1965, ANN MATH STAT, V36, P463, DOI 10.1214/aoms/1177700157
   LOEVE M, 1963, PROBABILITY THEORY
   Roy S. N., 1957, SOME ASPECTS MULTIVA
   SRIVASTAVA MS, 1967, J R STAT SOC B, V29, P132
NR 9
TC 20
Z9 20
U1 0
U2 0
PU INST MATHEMATICAL STATISTICS
PI CLEVELAND
PA 3163 SOMERSET DR, CLEVELAND, OH 44122 USA
SN 0003-4851
J9 ANN MATH STAT
JI Ann. Math. Stat.
PY 1971
VL 42
IS 4
BP 1403
EP +
DI 10.1214/aoms/1177693251
PG 1
WC Mathematics; Statistics & Probability
SC Mathematics
GA K2263
UT WOS:A1971K226300020
ER

PT J
AU STROUD, TWF
AF STROUD, TWF
TI OBTAINING LARGE-SAMPLE TESTS FROM ASYMPTOTICALLY NORMAL ESTIMATORS
SO ANNALS OF MATHEMATICAL STATISTICS
LA English
DT Article
CR AITKEN AC, 1953, P EDINBURGH MATHEMAT, V10, P1
   Anderson T. W., 1958, INTRO MULTIVARIATE S
   APOSTOL TM, 1957, MATHEMATICAL ANALYSI
   CHERNOFF H, 1956, ANN MATH STAT, V27, P1, DOI 10.1214/aoms/1177728347
   Cramer H., 1970, RANDOM VARIABLES PRO
   Doob JL, 1934, T AM MATH SOC, V36, P759, DOI 10.2307/1989822
   KENDALL MG, 1961, ADVANCED THEORY STAT, V2
   LECAM L, 1956, 3 P BERK S MATH STAT, V1, P129
   Loeve M., 1963, PROBABILITY THEORY
   STROUD TWF, 1970, 197033 QUEENS MATH P
   STROUD TWF, 1968, 28 DEP STAT TECHN RE
   Wald A, 1943, T AM MATH SOC, V54, P426, DOI 10.2307/1990256
   WELCH BL, 1938, BIOMETRIKA, V29, P360
NR 13
TC 26
Z9 26
U1 0
U2 0
PU INST MATHEMATICAL STATISTICS
PI HAYWARD
PA IMS BUSINESS OFFICE-SUITE 7, 3401 INVESTMENT BLVD, HAYWARD, CA 94545
SN 0003-4851
J9 ANN MATH STAT
PY 1971
VL 42
IS 4
BP 1412
EP &
DI 10.1214/aoms/1177693252
PG 0
WC Mathematics; Statistics & Probability
SC Mathematics
GA K2263
UT WOS:A1971K226300021
ER

PT J
AU JOSHI, VM
AF JOSHI, VM
TI ADMISSIBLE SAMPLING DESIGNS FOR A FINITE POPULATION
SO ANNALS OF MATHEMATICAL STATISTICS
LA English
DT Note
CR GODAMBE VP, 1965, ANN MATH STAT, V36, P1707, DOI 10.1214/aoms/1177699799
   HANURAV TV, 1968, ANN MATH STAT, V39, P621, DOI 10.1214/aoms/1177698422
NR 2
TC 0
Z9 0
U1 0
U2 0
PU INST MATHEMATICAL STATISTICS
PI HAYWARD
PA IMS BUSINESS OFFICE-SUITE 7, 3401 INVESTMENT BLVD, HAYWARD, CA 94545
SN 0003-4851
J9 ANN MATH STAT
PY 1971
VL 42
IS 4
BP 1425
EP &
DI 10.1214/aoms/1177693253
PG 0
WC Mathematics; Statistics & Probability
SC Mathematics
GA K2263
UT WOS:A1971K226300022
ER

PT J
AU SIMONS, G
AF SIMONS, G
TI IDENTIFYING PROBABILITY LIMITS
SO ANNALS OF MATHEMATICAL STATISTICS
LA English
DT Note
CR BAHADUR RR, 1954, ANN MATH STAT, V25, P423, DOI 10.1214/aoms/1177728715
   BREIMAN L, 1964, ANN MATH STAT, V35, P157, DOI 10.1214/aoms/1177703737
   SKIBINSK.M, 1969, ANN I STAT MATH, V21, P541, DOI 10.1007/BF02532279
   TAYLOR AE, 1964, INTRO FUNCTIONAL ANA
NR 4
TC 2
Z9 2
U1 0
U2 0
PU INST MATHEMATICAL STATISTICS
PI HAYWARD
PA IMS BUSINESS OFFICE-SUITE 7, 3401 INVESTMENT BLVD, HAYWARD, CA 94545
SN 0003-4851
J9 ANN MATH STAT
PY 1971
VL 42
IS 4
BP 1429
EP &
DI 10.1214/aoms/1177693254
PG 0
WC Mathematics; Statistics & Probability
SC Mathematics
GA K2263
UT WOS:A1971K226300023
ER

PT J
AU SEHEULT, AH
   QUESENBE.CP
AF SEHEULT, AH
   QUESENBE.CP
TI UNBIASED ESTIMATION OF DENSITY FUNCTIONS
SO ANNALS OF MATHEMATICAL STATISTICS
LA English
DT Note
CR BARTON DE, 1961, BIOMETRIKA, V48, P227, DOI 10.2307/2333156
   BASU AP, 1964, TECHNOMETRICS, V6, P215, DOI 10.2307/1266153
   BICKEL PJ, 1969, ANN MATH STAT, V40, P1523, DOI 10.1214/aoms/1177697370
   FOLKS JL, 1965, TECHNOMETRICS, V7, P43, DOI 10.2307/1266126
   GHURYE SG, 1969, ANN MATH STAT, V40, P1261, DOI 10.1214/aoms/1177697501
   Kolmogorov A. N., 1950, IZV AKAD NAUK SSSR M, V14, P303
   LAURENT AG, 1963, ANN MATH STAT, V34, P652, DOI 10.1214/aoms/1177704177
   LUMELSKII YP, 1969, THEOR PROBAB APPL+, V14, P357, DOI 10.1137/1114048
   PATIL GP, 1963, ANN MATH STAT, V34, P1050, DOI 10.1214/aoms/1177704029
   PUGH EL, 1963, OPER RES, V11, P57, DOI 10.1287/opre.11.1.57
   ROSENBLATT M, 1956, ANN MATH STAT, V27, P832, DOI 10.1214/aoms/1177728190
   SATHE YS, 1969, ANN MATH STAT, V40, P710, DOI 10.1214/aoms/1177697748
   SCHMETTERER L, 1960, ANN MATH STAT, V31, P656, DOI 10.1214/aoms/1177705792
   TATE RF, 1959, ANN MATH STAT, V30, P341, DOI 10.1214/aoms/1177706256
   WASHIO Y, 1956, B MATH STAT, V6, P69
NR 15
TC 14
Z9 14
U1 0
U2 0
PU INST MATHEMATICAL STATISTICS
PI HAYWARD
PA IMS BUSINESS OFFICE-SUITE 7, 3401 INVESTMENT BLVD, HAYWARD, CA 94545
SN 0003-4851
J9 ANN MATH STAT
PY 1971
VL 42
IS 4
BP 1434
EP &
DI 10.1214/aoms/1177693255
PG 0
WC Mathematics; Statistics & Probability
SC Mathematics
GA K2263
UT WOS:A1971K226300024
ER

PT J
AU LAWLESS, JF
AF LAWLESS, JF
TI CERTAIN TYPES OF BIBDS BLANCED FOR RESIDUAL EFFECTS
SO ANNALS OF MATHEMATICAL STATISTICS
LA English
DT Note
CR Bose RC, 1939, ANN EUGENIC, V9, P353
   PATTERSON HD, 1962, 147 TECHN B
   REES DH, 1967, BIOMETRICS, V23, P779, DOI 10.2307/2528428
   SPROTT DA, 1954, CAN J MATH, V6, P341, DOI 10.4153/CJM-1954-032-6
   Takeuchi K., 1962, REV I INT STATIST, V30, P361, DOI 10.2307/1401745
NR 5
TC 21
Z9 21
U1 0
U2 0
PU INST MATHEMATICAL STATISTICS
PI HAYWARD
PA IMS BUSINESS OFFICE-SUITE 7, 3401 INVESTMENT BLVD, HAYWARD, CA 94545
SN 0003-4851
J9 ANN MATH STAT
PY 1971
VL 42
IS 4
BP 1439
EP &
DI 10.1214/aoms/1177693256
PG 0
WC Mathematics; Statistics & Probability
SC Mathematics
GA K2263
UT WOS:A1971K226300025
ER

PT J
AU PLACHKY, D
AF PLACHKY, D
TI THEOREM OF STEVERS, GL
SO ANNALS OF MATHEMATICAL STATISTICS
LA English
DT Note
CR Kolmogoroff A N, 1956, FDN THEORY PROBABILI
   KOOPMANS LH, 1960, ANN MATH STAT, V31, P982, DOI 10.1214/aoms/1177705671
   SIEVERS GL, 1969, ANN MATH STAT, V40, P1908, DOI 10.1214/aoms/1177697275
NR 3
TC 15
Z9 15
U1 0
U2 0
PU INST MATHEMATICAL STATISTICS
PI HAYWARD
PA IMS BUSINESS OFFICE-SUITE 7, 3401 INVESTMENT BLVD, HAYWARD, CA 94545
SN 0003-4851
J9 ANN MATH STAT
PY 1971
VL 42
IS 4
BP 1442
EP &
DI 10.1214/aoms/1177693257
PG 0
WC Mathematics; Statistics & Probability
SC Mathematics
GA K2263
UT WOS:A1971K226300026
ER

PT J
AU ZIDEK, JV
AF ZIDEK, JV
TI INADMISSIBILITY OF A CLASS OF ESTIMATORS OF A NORMAL QUANTILE
SO ANNALS OF MATHEMATICAL STATISTICS
LA English
DT Note
CR STEIN C, UNPUBLISHED
   ZIDEK JV, 1969, ANN MATH STAT, V40, P1801, DOI 10.1214/aoms/1177697393
NR 2
TC 13
Z9 13
U1 0
U2 0
PU INST MATHEMATICAL STATISTICS
PI HAYWARD
PA IMS BUSINESS OFFICE-SUITE 7, 3401 INVESTMENT BLVD, HAYWARD, CA 94545
SN 0003-4851
J9 ANN MATH STAT
PY 1971
VL 42
IS 4
BP 1444
EP &
DI 10.1214/aoms/1177693258
PG 0
WC Mathematics; Statistics & Probability
SC Mathematics
GA K2263
UT WOS:A1971K226300027
ER

PT J
AU KAGEYAMA, S
AF KAGEYAMA, S
TI IMPROVED INEQUALITY FOR BLANCED INCOMPLETE BLOCK DESIGNS
SO ANNALS OF MATHEMATICAL STATISTICS
LA English
DT Note
CR Bose RC, 1942, SANKHYA, V6, P105
   STANTON RG, 1957, ANN MATH STAT, V28, P1054, DOI 10.1214/aoms/1177706814
NR 2
TC 9
Z9 9
U1 0
U2 0
PU INST MATHEMATICAL STATISTICS
PI HAYWARD
PA IMS BUSINESS OFFICE-SUITE 7, 3401 INVESTMENT BLVD, HAYWARD, CA 94545
SN 0003-4851
J9 ANN MATH STAT
PY 1971
VL 42
IS 4
BP 1448
EP &
DI 10.1214/aoms/1177693259
PG 0
WC Mathematics; Statistics & Probability
SC Mathematics
GA K2263
UT WOS:A1971K226300028
ER

PT J
AU TORGERSE.EN
AF TORGERSE.EN
TI COUNTEREXAMPLE ON TRANSLATION INVORIANT ESTIMATORS
SO ANNALS OF MATHEMATICAL STATISTICS
LA English
DT Note
CR HODGES JL, 1963, ANN MATH STAT, V34, P598, DOI 10.1214/aoms/1177704172
NR 1
TC 1
Z9 1
U1 0
U2 0
PU INST MATHEMATICAL STATISTICS
PI HAYWARD
PA IMS BUSINESS OFFICE-SUITE 7, 3401 INVESTMENT BLVD, HAYWARD, CA 94545
SN 0003-4851
J9 ANN MATH STAT
PY 1971
VL 42
IS 4
BP 1450
EP &
DI 10.1214/aoms/1177693260
PG 0
WC Mathematics; Statistics & Probability
SC Mathematics
GA K2263
UT WOS:A1971K226300029
ER

PT J
AU MEEDEN, G
AF MEEDEN, G
TI FINDING BEST TESTS APPROXIMATELY FOR TESTING HYPOTHESES ABOUT A RANDOM
   PARAMETER
SO ANNALS OF MATHEMATICAL STATISTICS
LA English
DT Note
CR KARLIN S, 1957, ANN MATH STAT, V28, P281, DOI 10.1214/aoms/1177706960
   MEEDEN G, 1970, ANN MATH STAT, V41, P585, DOI 10.1214/aoms/1177697098
NR 2
TC 4
Z9 4
U1 0
U2 0
PU INST MATHEMATICAL STATISTICS
PI HAYWARD
PA IMS BUSINESS OFFICE-SUITE 7, 3401 INVESTMENT BLVD, HAYWARD, CA 94545
SN 0003-4851
J9 ANN MATH STAT
PY 1971
VL 42
IS 4
BP 1452
EP &
DI 10.1214/aoms/1177693261
PG 0
WC Mathematics; Statistics & Probability
SC Mathematics
GA K2263
UT WOS:A1971K226300030
ER

PT J
AU TAMURA, R
AF TAMURA, R
TI C-SAMPLE TEST BASED ON TRIMMED SAMPLES
SO ANNALS OF MATHEMATICAL STATISTICS
LA English
DT Note
CR Anderson T. W., 1958, INTRO MULTIVARIATE S
   ANDREWS FC, 1954, ANN MATH STAT, V25, P724, DOI 10.1214/aoms/1177728658
   BHAPKAR VP, 1961, ANN MATH STAT, V32, P1108, DOI 10.1214/aoms/1177704849
   HETTMANSPERGER TP, 1968, ANN MATH STAT, V39, P1610
   LEHMANN EL, 1951, ANN MATH STAT, V22, P165, DOI 10.1214/aoms/1177729639
   SETHURAMAN J, 1961, SANKHYA A, V23, P379
   Sugiura N., 1965, OSAKA J MATH, V2, P385
NR 7
TC 1
Z9 1
U1 0
U2 0
PU INST MATHEMATICAL STATISTICS
PI HAYWARD
PA IMS BUSINESS OFFICE-SUITE 7, 3401 INVESTMENT BLVD, HAYWARD, CA 94545
SN 0003-4851
J9 ANN MATH STAT
PY 1971
VL 42
IS 4
BP 1455
EP &
DI 10.1214/aoms/1177693262
PG 0
WC Mathematics; Statistics & Probability
SC Mathematics
GA K2263
UT WOS:A1971K226300031
ER

PT J
AU PATIL, SA
AF PATIL, SA
TI CORRECTION
SO ANNALS OF MATHEMATICAL STATISTICS
LA English
DT Correction, Addition
CR PATIL SA, 1970, ANN MATH STAT, V41, P723, DOI 10.1214/aoms/1177697123
NR 1
TC 0
Z9 0
U1 0
U2 0
PU INST MATHEMATICAL STATISTICS
PI HAYWARD
PA IMS BUSINESS OFFICE-SUITE 7, 3401 INVESTMENT BLVD, HAYWARD, CA 94545
SN 0003-4851
J9 ANN MATH STAT
PY 1971
VL 42
IS 4
BP 1461
EP &
DI 10.1214/aoms/1177693263
PG 0
WC Mathematics; Statistics & Probability
SC Mathematics
GA K2263
UT WOS:A1971K226300032
ER

PT J
AU JOSHI, VM
AF JOSHI, VM
TI CORRECTION
SO ANNALS OF MATHEMATICAL STATISTICS
LA English
DT Correction, Addition
CR JOSHI VM, 1970, ANN MATH STAT, V41, P1568, DOI 10.1214/aoms/1177696801
NR 1
TC 0
Z9 0
U1 0
U2 0
PU INST MATHEMATICAL STATISTICS
PI HAYWARD
PA IMS BUSINESS OFFICE-SUITE 7, 3401 INVESTMENT BLVD, HAYWARD, CA 94545
SN 0003-4851
J9 ANN MATH STAT
PY 1971
VL 42
IS 4
BP 1462
EP &
DI 10.1214/aoms/1177693264
PG 0
WC Mathematics; Statistics & Probability
SC Mathematics
GA K2263
UT WOS:A1971K226300033
ER

PT J
AU MASANI, P
AF MASANI, P
TI STATIONARY RANDOM PROCESSES - ROZANOV,YA
SO ANNALS OF MATHEMATICAL STATISTICS
LA English
DT Book Review
C1 INDIANA UNIV,BLOOMINGTON,IN.
CR HALMOS, 1961, CRELLE J, V208, P102
   Rozanov Y. A., 1967, STATIONARY RANDOM PR
   1962, PACIFIC J MATH, V12, P1361
   1941, B MOSCOW STATE U, V2, P1
   1967, ARK MAT, V7, P305
   1953, STOCHASTIC PROCESSES
   1968, CANADIAN J MATH, V20, P368
NR 7
TC 2
Z9 2
U1 0
U2 0
PU INST MATHEMATICAL STATISTICS
PI HAYWARD
PA IMS BUSINESS OFFICE-SUITE 7, 3401 INVESTMENT BLVD, HAYWARD, CA 94545
SN 0003-4851
J9 ANN MATH STAT
PY 1971
VL 42
IS 4
BP 1463
EP 1467
DI 10.1214/aoms/1177693265
PG 5
WC Mathematics; Statistics & Probability
SC Mathematics
GA K2263
UT WOS:A1971K226300098
ER

PT J
AU HARTLEY, HO
AF HARTLEY, HO
TI STATISTICAL COMPUTATIONS ON A DIGITAL COMPUTER - HEMMERLE,WJ
SO ANNALS OF MATHEMATICAL STATISTICS
LA English
DT Book Review
C1 TEXAS A&M UNIV,COLLEGE STN,TX.
CR HEMMERLE W, 1967, STATISTICAL COMPUTAT
NR 1
TC 0
Z9 0
U1 0
U2 0
PU INST MATHEMATICAL STATISTICS
PI HAYWARD
PA IMS BUSINESS OFFICE-SUITE 7, 3401 INVESTMENT BLVD, HAYWARD, CA 94545
SN 0003-4851
J9 ANN MATH STAT
PY 1971
VL 42
IS 4
BP 1468
EP 1468
DI 10.1214/aoms/1177693266
PG 1
WC Mathematics; Statistics & Probability
SC Mathematics
GA K2263
UT WOS:A1971K226300099
ER

PT J
AU DENNY, JL
AF DENNY, JL
TI NONLINEAR METHOD OF PREDICTING AND REPRESENTING RANDOM VARIABLES
SO ANNALS OF MATHEMATICAL STATISTICS
LA English
DT Meeting Abstract
NR 0
TC 0
Z9 0
U1 0
U2 0
PU INST MATHEMATICAL STATISTICS
PI HAYWARD
PA IMS BUSINESS OFFICE-SUITE 7, 3401 INVESTMENT BLVD, HAYWARD, CA 94545
SN 0003-4851
J9 ANN MATH STAT
PY 1971
VL 42
IS 4
BP 1469
EP &
PG 0
WC Mathematics; Statistics & Probability
SC Mathematics
GA K2263
UT WOS:A1971K226300034
ER

PT J
AU SEN, PK
AF SEN, PK
TI CONVERGENCE OF SEQUENCES OF REGULAR FUNCTIONALS OF EMPIRICAL
   DISTRIBUTIONS TO PROCESSES OF BROWNIAN MOTION
SO ANNALS OF MATHEMATICAL STATISTICS
LA English
DT Meeting Abstract
CR BILLINGSLEY, 1968, CONVERGENCE PROBABIL, P68
   HOEFFDING, 1948, ANN MATH STATIST, V17, P293
   MISES V, 1947, ANN MATH STATIST, V18, P309
NR 3
TC 0
Z9 0
U1 0
U2 1
PU INST MATHEMATICAL STATISTICS
PI HAYWARD
PA IMS BUSINESS OFFICE-SUITE 7, 3401 INVESTMENT BLVD, HAYWARD, CA 94545
SN 0003-4851
J9 ANN MATH STAT
PY 1971
VL 42
IS 4
BP 1469
EP &
PG 0
WC Mathematics; Statistics & Probability
SC Mathematics
GA K2263
UT WOS:A1971K226300036
ER

PT J
AU YANG, MCK
AF YANG, MCK
TI SOME PROPERTIES OF A REGULAR SEQUENCE OF DESIGNS AND ASYMPTOTICALLY
   OPTIMAL DESIGN IN TIME SERIES
SO ANNALS OF MATHEMATICAL STATISTICS
LA English
DT Meeting Abstract
NR 0
TC 0
Z9 0
U1 0
U2 0
PU INST MATHEMATICAL STATISTICS
PI HAYWARD
PA IMS BUSINESS OFFICE-SUITE 7, 3401 INVESTMENT BLVD, HAYWARD, CA 94545
SN 0003-4851
J9 ANN MATH STAT
PY 1971
VL 42
IS 4
BP 1469
EP &
PG 0
WC Mathematics; Statistics & Probability
SC Mathematics
GA K2263
UT WOS:A1971K226300035
ER

PT J
AU ANDERSON, PO
AF ANDERSON, PO
TI ORTHOGONAL LEAST-SQUARES ESTIMATION
SO ANNALS OF MATHEMATICAL STATISTICS
LA English
DT Meeting Abstract
NR 0
TC 0
Z9 0
U1 0
U2 1
PU INST MATHEMATICAL STATISTICS
PI HAYWARD
PA IMS BUSINESS OFFICE-SUITE 7, 3401 INVESTMENT BLVD, HAYWARD, CA 94545
SN 0003-4851
J9 ANN MATH STAT
PY 1971
VL 42
IS 4
BP 1470
EP &
PG 0
WC Mathematics; Statistics & Probability
SC Mathematics
GA K2263
UT WOS:A1971K226300039
ER

PT J
AU DUNCAN, DB
   HORN, SD
AF DUNCAN, DB
   HORN, SD
TI RANDOM-BETA EXTENSION OF GAUSS-MARKOFF THEOREM
SO ANNALS OF MATHEMATICAL STATISTICS
LA English
DT Meeting Abstract
CR KALMAN, 1960, ASME T             D, V82, P35
NR 1
TC 0
Z9 0
U1 0
U2 0
PU INST MATHEMATICAL STATISTICS
PI HAYWARD
PA IMS BUSINESS OFFICE-SUITE 7, 3401 INVESTMENT BLVD, HAYWARD, CA 94545
SN 0003-4851
J9 ANN MATH STAT
PY 1971
VL 42
IS 4
BP 1470
EP &
PG 0
WC Mathematics; Statistics & Probability
SC Mathematics
GA K2263
UT WOS:A1971K226300038
ER

PT J
AU TAYLOR, RL
AF TAYLOR, RL
TI WEAK LAWS OF LARGE NUMBERS IN NORMED LINEAR SPACES
SO ANNALS OF MATHEMATICAL STATISTICS
LA English
DT Meeting Abstract
NR 0
TC 0
Z9 0
U1 0
U2 0
PU INST MATHEMATICAL STATISTICS
PI HAYWARD
PA IMS BUSINESS OFFICE-SUITE 7, 3401 INVESTMENT BLVD, HAYWARD, CA 94545
SN 0003-4851
J9 ANN MATH STAT
PY 1971
VL 42
IS 4
BP 1470
EP &
PG 0
WC Mathematics; Statistics & Probability
SC Mathematics
GA K2263
UT WOS:A1971K226300037
ER

PT J
AU BHATTACH.PK
AF BHATTACH.PK
TI ORDER OF DEPENDENCE IN A NORMALLY DISTRIBUTED 2-WAY SERIES
SO ANNALS OF MATHEMATICAL STATISTICS
LA English
DT Meeting Abstract
CR ANDERSON, 1962, P S TIME SERIES ANAL, P425
NR 1
TC 0
Z9 0
U1 0
U2 0
PU INST MATHEMATICAL STATISTICS
PI HAYWARD
PA IMS BUSINESS OFFICE-SUITE 7, 3401 INVESTMENT BLVD, HAYWARD, CA 94545
SN 0003-4851
J9 ANN MATH STAT
PY 1971
VL 42
IS 4
BP 1471
EP &
PG 0
WC Mathematics; Statistics & Probability
SC Mathematics
GA K2263
UT WOS:A1971K226300040
ER

PT J
AU KRISHNAN, M
AF KRISHNAN, M
TI MOMENT GENERATING FUNCTION OF A BIVARIATE NONCENTRAL CHI-SQUARE
   DISTRIBUTION
SO ANNALS OF MATHEMATICAL STATISTICS
LA English
DT Meeting Abstract
NR 0
TC 0
Z9 0
U1 0
U2 0
PU INST MATHEMATICAL STATISTICS
PI HAYWARD
PA IMS BUSINESS OFFICE-SUITE 7, 3401 INVESTMENT BLVD, HAYWARD, CA 94545
SN 0003-4851
J9 ANN MATH STAT
PY 1971
VL 42
IS 4
BP 1471
EP &
PG 0
WC Mathematics; Statistics & Probability
SC Mathematics
GA K2263
UT WOS:A1971K226300041
ER

PT J
AU JOSHI, SW
AF JOSHI, SW
TI MINIMUM VARIANCE UNBIASED ESTIMATION FOR TRUNCATED DISTRIBUTIONS WITH
   UNKNOWN TRUNCATION POINTS
SO ANNALS OF MATHEMATICAL STATISTICS
LA English
DT Meeting Abstract
NR 0
TC 1
Z9 1
U1 0
U2 0
PU INST MATHEMATICAL STATISTICS
PI HAYWARD
PA IMS BUSINESS OFFICE-SUITE 7, 3401 INVESTMENT BLVD, HAYWARD, CA 94545
SN 0003-4851
J9 ANN MATH STAT
PY 1971
VL 42
IS 4
BP 1472
EP &
PG 0
WC Mathematics; Statistics & Probability
SC Mathematics
GA K2263
UT WOS:A1971K226300042
ER

PT J
AU SCLOVE, SL
AF SCLOVE, SL
TI CRITERIA FOR CHOOSING A REGRESSION EQUATION FOR PREDICTION IN
   MULTIVARIATE NORMAL DISTRIBUTIONS
SO ANNALS OF MATHEMATICAL STATISTICS
LA English
DT Meeting Abstract
NR 0
TC 4
Z9 4
U1 0
U2 0
PU INST MATHEMATICAL STATISTICS
PI HAYWARD
PA IMS BUSINESS OFFICE-SUITE 7, 3401 INVESTMENT BLVD, HAYWARD, CA 94545
SN 0003-4851
J9 ANN MATH STAT
PY 1971
VL 42
IS 4
BP 1472
EP &
PG 0
WC Mathematics; Statistics & Probability
SC Mathematics
GA K2263
UT WOS:A1971K226300043
ER

PT J
AU SINGH, R
AF SINGH, R
TI ADMISSIBLE ESTIMATORS OF THETA IN SOME EXTREME VALUE DENSITIES
SO ANNALS OF MATHEMATICAL STATISTICS
LA English
DT Meeting Abstract
NR 0
TC 0
Z9 0
U1 0
U2 0
PU INST MATHEMATICAL STATISTICS
PI HAYWARD
PA IMS BUSINESS OFFICE-SUITE 7, 3401 INVESTMENT BLVD, HAYWARD, CA 94545
SN 0003-4851
J9 ANN MATH STAT
PY 1971
VL 42
IS 4
BP 1472
EP &
PG 0
WC Mathematics; Statistics & Probability
SC Mathematics
GA K2263
UT WOS:A1971K226300044
ER

PT J
AU MILTON, JS
   TSOKOS, CP
AF MILTON, JS
   TSOKOS, CP
TI RANDOM PERTURBATION OF A STOCHASTIC INTEGRAL EQUATION OF FREDHOLM TYPE
SO ANNALS OF MATHEMATICAL STATISTICS
LA English
DT Meeting Abstract
NR 0
TC 0
Z9 0
U1 0
U2 0
PU INST MATHEMATICAL STATISTICS
PI HAYWARD
PA IMS BUSINESS OFFICE-SUITE 7, 3401 INVESTMENT BLVD, HAYWARD, CA 94545
SN 0003-4851
J9 ANN MATH STAT
PY 1971
VL 42
IS 4
BP 1473
EP &
PG 0
WC Mathematics; Statistics & Probability
SC Mathematics
GA K2263
UT WOS:A1971K226300047
ER

PT J
AU PADGETT, WJ
   TSOKOS, CP
AF PADGETT, WJ
   TSOKOS, CP
TI RANDOM SOLUTION OF A STOCHASTIC INTEGRAL EQUATION - ALMOST SURE AND MEAN
   SQUARE CONVERGENCE OF SUCCESSIVE APPROXIMATIONS
SO ANNALS OF MATHEMATICAL STATISTICS
LA English
DT Meeting Abstract
NR 0
TC 0
Z9 0
U1 0
U2 0
PU INST MATHEMATICAL STATISTICS
PI HAYWARD
PA IMS BUSINESS OFFICE-SUITE 7, 3401 INVESTMENT BLVD, HAYWARD, CA 94545
SN 0003-4851
J9 ANN MATH STAT
PY 1971
VL 42
IS 4
BP 1473
EP &
PG 0
WC Mathematics; Statistics & Probability
SC Mathematics
GA K2263
UT WOS:A1971K226300046
ER

PT J
AU TSOKOS, CP
   PADGETT, WJ
AF TSOKOS, CP
   PADGETT, WJ
TI EXISTENCE OF A SOLUTION OF A STOCHASTIC DISCRETE FREDHOLM EQUATION
SO ANNALS OF MATHEMATICAL STATISTICS
LA English
DT Meeting Abstract
NR 0
TC 0
Z9 0
U1 0
U2 0
PU INST MATHEMATICAL STATISTICS
PI HAYWARD
PA IMS BUSINESS OFFICE-SUITE 7, 3401 INVESTMENT BLVD, HAYWARD, CA 94545
SN 0003-4851
J9 ANN MATH STAT
PY 1971
VL 42
IS 4
BP 1473
EP &
PG 0
WC Mathematics; Statistics & Probability
SC Mathematics
GA K2263
UT WOS:A1971K226300045
ER

PT J
AU DUTTA, K
   SEN, PK
AF DUTTA, K
   SEN, PK
TI BAHADUR REPRESENTATION OF SAMPLE QUANTILES IN SOME STATIONARY
   MULTIVARIATE AUTOREGRESSIVE PROCESS
SO ANNALS OF MATHEMATICAL STATISTICS
LA English
DT Meeting Abstract
CR BAHADUR, 1966, ANN MATH STATIST, V37, P577
NR 1
TC 0
Z9 0
U1 0
U2 0
PU INST MATHEMATICAL STATISTICS
PI HAYWARD
PA IMS BUSINESS OFFICE-SUITE 7, 3401 INVESTMENT BLVD, HAYWARD, CA 94545
SN 0003-4851
J9 ANN MATH STAT
PY 1971
VL 42
IS 4
BP 1474
EP &
PG 0
WC Mathematics; Statistics & Probability
SC Mathematics
GA K2263
UT WOS:A1971K226300049
ER

PT J
AU GUPTA, AK
AF GUPTA, AK
TI TESTING INDEPENDENCE OF COMPONENTS OF A GAUSSIAN COMPLEX MATRIX VARIATE
SO ANNALS OF MATHEMATICAL STATISTICS
LA English
DT Meeting Abstract
CR GOODMAN, ANN MATH STATIST, V34, P152
   KHATRI, ANN MATH STATIST, V36, P115
NR 2
TC 0
Z9 0
U1 0
U2 0
PU INST MATHEMATICAL STATISTICS
PI HAYWARD
PA IMS BUSINESS OFFICE-SUITE 7, 3401 INVESTMENT BLVD, HAYWARD, CA 94545
SN 0003-4851
J9 ANN MATH STAT
PY 1971
VL 42
IS 4
BP 1474
EP &
PG 0
WC Mathematics; Statistics & Probability
SC Mathematics
GA K2263
UT WOS:A1971K226300050
ER

PT J
AU SCOTT, C
   SALEH, AKE
AF SCOTT, C
   SALEH, AKE
TI EFFECT OF TRUNCATION ON SIZE OF T-TEST
SO ANNALS OF MATHEMATICAL STATISTICS
LA English
DT Meeting Abstract
NR 0
TC 0
Z9 0
U1 0
U2 0
PU INST MATHEMATICAL STATISTICS
PI HAYWARD
PA IMS BUSINESS OFFICE-SUITE 7, 3401 INVESTMENT BLVD, HAYWARD, CA 94545
SN 0003-4851
J9 ANN MATH STAT
PY 1971
VL 42
IS 4
BP 1474
EP &
PG 0
WC Mathematics; Statistics & Probability
SC Mathematics
GA K2263
UT WOS:A1971K226300048
ER

PT J
AU BAGCHI, TP
AF BAGCHI, TP
TI BULK QUEUEING WITH LINITED WAITING SPACE
SO ANNALS OF MATHEMATICAL STATISTICS
LA English
DT Meeting Abstract
NR 0
TC 0
Z9 0
U1 0
U2 0
PU INST MATHEMATICAL STATISTICS
PI HAYWARD
PA IMS BUSINESS OFFICE-SUITE 7, 3401 INVESTMENT BLVD, HAYWARD, CA 94545
SN 0003-4851
J9 ANN MATH STAT
PY 1971
VL 42
IS 4
BP 1475
EP &
PG 0
WC Mathematics; Statistics & Probability
SC Mathematics
GA K2263
UT WOS:A1971K226300052
ER

PT J
AU CHEW, MC
   RAO, A
   ZERHOUNI, MC
AF CHEW, MC
   RAO, A
   ZERHOUNI, MC
TI EXPANDED BAYES DECISION MAKING
SO ANNALS OF MATHEMATICAL STATISTICS
LA English
DT Meeting Abstract
NR 0
TC 0
Z9 0
U1 0
U2 0
PU INST MATHEMATICAL STATISTICS
PI HAYWARD
PA IMS BUSINESS OFFICE-SUITE 7, 3401 INVESTMENT BLVD, HAYWARD, CA 94545
SN 0003-4851
J9 ANN MATH STAT
PY 1971
VL 42
IS 4
BP 1475
EP &
PG 0
WC Mathematics; Statistics & Probability
SC Mathematics
GA K2263
UT WOS:A1971K226300053
ER

PT J
AU GOODMAN, IR
   KOTZ, S
AF GOODMAN, IR
   KOTZ, S
TI STRUCTURAL PROPERTIES OF A MULTIVARIATE THETA-GENERALIZED DISTRIBUTION
SO ANNALS OF MATHEMATICAL STATISTICS
LA English
DT Meeting Abstract
CR BOX GEP, 1962, BIOMETRIKA, V46
   SUBBOTIN M, 1923, MATHEMATICHESKII SBO, V31
NR 2
TC 0
Z9 0
U1 0
U2 0
PU INST MATHEMATICAL STATISTICS
PI HAYWARD
PA IMS BUSINESS OFFICE-SUITE 7, 3401 INVESTMENT BLVD, HAYWARD, CA 94545
SN 0003-4851
J9 ANN MATH STAT
PY 1971
VL 42
IS 4
BP 1475
EP &
PG 0
WC Mathematics; Statistics & Probability
SC Mathematics
GA K2263
UT WOS:A1971K226300051
ER

PT J
AU GOEL, AL
AF GOEL, AL
TI NOMOGRAMS FOR DESIGN AND ARL OF V-MASKS FOR CUSUM CHARTS
SO ANNALS OF MATHEMATICAL STATISTICS
LA English
DT Meeting Abstract
CR GOEL, 1971, TECHNOMETRICS
   KEMP, 1961, J ROY STATIST SOC  B, P249
NR 2
TC 1
Z9 1
U1 0
U2 0
PU INST MATHEMATICAL STATISTICS
PI HAYWARD
PA IMS BUSINESS OFFICE-SUITE 7, 3401 INVESTMENT BLVD, HAYWARD, CA 94545
SN 0003-4851
J9 ANN MATH STAT
PY 1971
VL 42
IS 4
BP 1476
EP &
PG 0
WC Mathematics; Statistics & Probability
SC Mathematics
GA K2263
UT WOS:A1971K226300055
ER

PT J
AU NICHOLS, WG
AF NICHOLS, WG
TI SOLUTION OF LINEAR STOCHASTIC PURSUIT-EVASION GAMES
SO ANNALS OF MATHEMATICAL STATISTICS
LA English
DT Meeting Abstract
NR 0
TC 0
Z9 0
U1 0
U2 0
PU INST MATHEMATICAL STATISTICS
PI HAYWARD
PA IMS BUSINESS OFFICE-SUITE 7, 3401 INVESTMENT BLVD, HAYWARD, CA 94545
SN 0003-4851
J9 ANN MATH STAT
PY 1971
VL 42
IS 4
BP 1476
EP &
PG 0
WC Mathematics; Statistics & Probability
SC Mathematics
GA K2263
UT WOS:A1971K226300054
ER

EF